     Program PWSCF v.6.4.1 starts on 25Sep2021 at 15:19:55

     K-points division:     npool     =       3
     R & G space division:  proc/nbgrp/npool/nimage =       4
     Reading input from Si.Fd-3m_1ML.relax_-0.005.in

     Current dimensions of program PWSCF are:
     Max number of different atomic species (ntypx) = 10
     Max number of k-points (npk) =  40000
     Max angular momentum in pseudopotentials (lmaxx) =  3
               file Si.pbe-nl-kjpaw_psl.1.0.0.UPF: wavefunction(s)  3S 3P renormalized

     Subspace diagonalization in iterative solution of the eigenvalue problem:
     a serial algorithm will be used

     Message from routine setup:
     DEPRECATED: symmetry with ibrav=0, use correct ibrav instead
     Message from routine setup:
     Dynamics, you should have no symmetries

     Title:
     Relaxation of atomic positions for single monolayer slab of Si using PBE

     bravais-lattice index     =            0
     lattice parameter (alat)  =      10.2803  a.u.
     unit-cell volume          =    2824.8234 (a.u.)^3
     number of atoms/cell      =            8
     number of atomic types    =            1
     number of electrons       =        32.00
     number of Kohn-Sham states=           24
     kinetic-energy cutoff     =      45.0000  Ry
     charge density cutoff     =     175.0000  Ry
     convergence threshold     =      1.0E-08
     mixing beta               =       0.5000
     number of iterations used =            8  local-TF  mixing
     Exchange-correlation      = SLA PW PBX PBC ( 1  4  3  4 0 0)
     nstep                     =          150

     celldm(1)=  10.280305  celldm(2)=   0.000000  celldm(3)=   0.000000
     celldm(4)=   0.000000  celldm(5)=   0.000000  celldm(6)=   0.000000

     crystal axes: (cart. coord. in units of alat)
               a(1) = (   1.000000   0.000000   0.000000 )
               a(2) = (   0.000000   1.000000   0.000000 )
               a(3) = (   0.000000   0.000000   2.600000 )

     reciprocal axes: (cart. coord. in units 2 pi/alat)
               b(1) = (  1.000000  0.000000  0.000000 )
               b(2) = (  0.000000  1.000000  0.000000 )
               b(3) = (  0.000000  0.000000  0.384615 )

     PseudoPot. # 1 for Si read from file:
     /share/pseudo/Si.pbe-nl-kjpaw_psl.1.0.0.UPF
     MD5 check sum: 3686bff6734aab787fb18a3c8374d51f
     Pseudo is Projector augmented-wave + core cor, Zval =  4.0
     Generated using "atomic" code by A. Dal Corso v.6.3
     Shape of augmentation charge: PSQ
     Using radial grid of 1141 points,  4 beta functions with:
                l(1) =   0
                l(2) =   0
                l(3) =   1
                l(4) =   1
     Q(r) pseudized with 0 coefficients

     atomic species   valence    mass     pseudopotential
        Si             4.00    28.08600     Si( 1.00)

      2 Sym. Ops. (no inversion) found

   Cartesian axes

     site n.     atom                  positions (alat units)
         1           Si  tau(   1) = (   0.0000151   0.0000151   0.8056410  )
         2           Si  tau(   2) = (   0.0000144   0.5025300   1.3103902  )
         3           Si  tau(   3) = (   0.5025300   0.0000144   1.3103902  )
         4           Si  tau(   4) = (   0.5025297   0.5025297   0.8056388  )
         5           Si  tau(   5) = (   0.2512827   0.2512827   1.0515143  )
         6           Si  tau(   6) = (   0.2512590   0.7537988   1.5562772  )
         7           Si  tau(   7) = (   0.7537988   0.2512590   1.5562772  )
         8           Si  tau(   8) = (   0.7537756   0.7537756   1.0515141  )

     number of k points=    21  gaussian smearing, width (Ry)=  0.0100
                       cart. coord. in units 2pi/alat
        k(    1) = (   0.0000000   0.0000000   0.0000000), wk =   0.0312500
        k(    2) = (   0.0000000   0.1250000   0.0000000), wk =   0.1250000
        k(    3) = (   0.0000000   0.2500000   0.0000000), wk =   0.1250000
        k(    4) = (   0.0000000   0.3750000   0.0000000), wk =   0.1250000
        k(    5) = (   0.0000000  -0.5000000   0.0000000), wk =   0.0625000
        k(    6) = (   0.1250000   0.1250000   0.0000000), wk =   0.0625000
        k(    7) = (   0.1250000   0.2500000   0.0000000), wk =   0.1250000
        k(    8) = (   0.1250000   0.3750000   0.0000000), wk =   0.1250000
        k(    9) = (   0.1250000  -0.5000000   0.0000000), wk =   0.1250000
        k(   10) = (   0.2500000   0.2500000   0.0000000), wk =   0.0625000
        k(   11) = (   0.2500000   0.3750000   0.0000000), wk =   0.1250000
        k(   12) = (   0.2500000  -0.5000000   0.0000000), wk =   0.1250000
        k(   13) = (   0.3750000   0.3750000   0.0000000), wk =   0.0625000
        k(   14) = (   0.3750000  -0.5000000   0.0000000), wk =   0.1250000
        k(   15) = (  -0.5000000  -0.5000000   0.0000000), wk =   0.0312500
        k(   16) = (  -0.1250000   0.1250000   0.0000000), wk =   0.0625000
        k(   17) = (  -0.1250000   0.2500000   0.0000000), wk =   0.1250000
        k(   18) = (  -0.1250000   0.3750000   0.0000000), wk =   0.1250000
        k(   19) = (  -0.2500000   0.2500000   0.0000000), wk =   0.0625000
        k(   20) = (  -0.2500000   0.3750000   0.0000000), wk =   0.1250000
        k(   21) = (  -0.3750000   0.3750000   0.0000000), wk =   0.0625000

     Initial potential from superposition of free atoms

     starting charge   31.99553, renormalised to   32.00000

     negative rho (up, down):  2.772E-06 0.000E+00
     Starting wfcs are   32 randomized atomic wfcs
     Checking if some PAW data can be deallocated...

     Self-consistent Calculation

     iteration #  1     ecut=    45.00 Ry     beta= 0.50
     CG style diagonalization
     ethr =  1.00E-02,  avg # of iterations =  3.2

     Threshold (ethr) on eigenvalues was too large:
     Diagonalizing with lowered threshold

     CG style diagonalization
     ethr =  8.64E-04,  avg # of iterations =  2.2

     total energy              =    -373.30277084 Ry
     Harris-Foulkes estimate   =    -373.34568591 Ry
     estimated scf accuracy    <       0.28176290 Ry

[...]

     iteration #  4     ecut=    45.00 Ry     beta= 0.50
     CG style diagonalization
     c_bands:  2 eigenvalues not converged
     c_bands:  1 eigenvalues not converged
     c_bands:  1 eigenvalues not converged
     ethr =  2.43E-05,  avg # of iterations =  5.0

[...]

     negative rho (up, down):  7.721E-08 0.000E+00

[...]

     End of self-consistent calculation

          k = 0.0000 0.0000 0.0000 ( 14365 PWs)   bands (ev):

   -11.7708  -9.6179  -8.3321  -8.3318  -7.5293  -7.5290  -6.2994  -3.8257
    -3.8256  -2.8687  -2.6299  -2.5135  -2.1472  -2.1467  -1.4889  -0.7740
    -0.7731  -0.5008   0.4181   0.8897   1.0459   1.8279   1.8281   2.0740

[...]

          k =-0.5000-0.5000 0.0000 ( 14440 PWs)   bands (ev):

[...]

     the Fermi energy is    -0.9330 ev

!    total energy              =    -373.28015662 Ry
     Harris-Foulkes estimate   =    -373.28015662 Ry
     estimated scf accuracy    <          1.8E-09 Ry

     convergence has been achieved in  15 iterations

[...]

     Forces acting on atoms (cartesian axes, Ry/au):

     atom    1 type  1   force =     0.00606537    0.00606537   -0.00445746
     atom    2 type  1   force =     0.00511343   -0.00004012    0.00073821
     atom    3 type  1   force =    -0.00004012    0.00511343    0.00073821
     atom    4 type  1   force =    -0.00065809   -0.00065809    0.00085786
     atom    5 type  1   force =    -0.00004495   -0.00004495   -0.00113429
     atom    6 type  1   force =    -0.00386949   -0.00130868    0.00163334
     atom    7 type  1   force =    -0.00130868   -0.00386949    0.00163334
     atom    8 type  1   force =    -0.00525747   -0.00525747   -0.00000922

     Total force =     0.015611     Total SCF correction =     0.000067

     Computing stress (Cartesian axis) and pressure

     negative rho (up, down):  8.116E-07 0.000E+00
          total   stress  (Ry/bohr**3)                   (kbar)     P=   -7.72
  -0.00008387   0.00004024  -0.00000955        -12.34      5.92     -1.40
   0.00004024  -0.00008387  -0.00000955          5.92    -12.34     -1.40
  -0.00000955  -0.00000955   0.00001028         -1.40     -1.40      1.51

     Damped Dynamics Calculation

     Entering Dynamics:    iteration =     1

ATOMIC_POSITIONS (angstrom)
Si       0.001490549   0.001490549   4.381734680
Si       0.001265894   2.733805350   7.128829044
Si       2.733805350   0.001265894   7.128829044
Si       2.733660361   2.733660361   4.382957367
Si       1.366993103   1.366993103   5.720082521
Si       1.365976283   4.100439303   8.466687628
Si       4.100439303   1.365976283   8.466687628
Si       4.099395905   4.099395905   5.720342566

     Writing output data file Si.Fd-3m_1ML.save/
     NEW-OLD atomic charge density approx. for the potential

[...]

     CG style diagonalization
     c_bands:  1 eigenvalues not converged
     c_bands:  3 eigenvalues not converged
     c_bands:  3 eigenvalues not converged
     c_bands:  4 eigenvalues not converged
     c_bands:  1 eigenvalues not converged
     c_bands:  4 eigenvalues not converged
     ethr =  8.23E-09,  avg # of iterations =  9.3

[...]

     <vel(dt)|acc(dt)> =   0.99226900

[...]

     iteration #  1     ecut=    45.00 Ry     beta= 0.50
     CG style diagonalization
     c_bands:  1 eigenvalues not converged
     c_bands:  1 eigenvalues not converged
     c_bands:  2 eigenvalues not converged
     ethr =  1.00E-06,  avg # of iterations = 10.5

[...]

     Entering Dynamics:    iteration =    26

     <vel(dt)|acc(dt)> =   0.53234313

ATOMIC_POSITIONS (angstrom)
Si       0.000466930   0.000466930   4.301816907
Si       0.018125349   2.738386914   7.192953363
Si       2.738386914   0.018125349   7.192953363
Si       2.722751641   2.722751641   4.532565084
Si       1.321343756   1.321343756   5.783446733
Si       0.856227400   4.624413260   8.303241251
Si       4.624413260   0.856227400   8.303241251
Si       4.121311498   4.121311498   5.785932526

     Writing output data file Si.Fd-3m_1ML.save/
     NEW-OLD atomic charge density approx. for the potential

[...]

     Self-consistent Calculation

[...]

     Threshold (ethr) on eigenvalues was too large:
     Diagonalizing with lowered threshold

     CG style diagonalization
     c_bands:  1 eigenvalues not converged
     c_bands:  1 eigenvalues not converged
     c_bands:  1 eigenvalues not converged
     ethr =  1.77E-08,  avg # of iterations =  8.4

[...]

     total energy              =    -373.35925422 Ry
     Harris-Foulkes estimate   =    -373.35925422 Ry
     estimated scf accuracy    <       0.00000003 Ry

     iteration #  5     ecut=    45.00 Ry     beta= 0.50
     CG style diagonalization
     ethr =  1.06E-10,  avg # of iterations =  3.3

[...]

     End of self-consistent calculation

[...]

          k = 0.3750-0.5000 0.0000 ( 14438 PWs)   bands (ev):

[...]

          k =-0.3750 0.3750 0.0000 ( 14444 PWs)   bands (ev):

   -10.8849 -10.1930  -9.4426  -9.2199  -7.7062  -6.6358  -5.5945  -5.3081
    -3.7554  -3.1842  -2.7608  -2.1199  -1.7856  -1.3958  -1.2741  -1.1671
    -0.2120   0.5272   1.1130   1.6841   2.0438   2.0738   2.6201   2.8665

     the Fermi energy is    -0.6047 ev

!    total energy              =    -373.35925423 Ry
     Harris-Foulkes estimate   =    -373.35925422 Ry
     estimated scf accuracy    <          8.2E-09 Ry

     convergence has been achieved in   5 iterations

     negative rho (up, down):  1.212E-06 0.000E+00

     Forces acting on atoms (cartesian axes, Ry/au):

     atom    1 type  1   force =    -0.00003906   -0.00003906   -0.00121821
     atom    2 type  1   force =    -0.00021202    0.00146416   -0.00026922
     atom    3 type  1   force =     0.00146416   -0.00021202   -0.00026922
     atom    4 type  1   force =    -0.00032235   -0.00032235    0.00190676
     atom    5 type  1   force =    -0.00113217   -0.00113217    0.00034104
     atom    6 type  1   force =    -0.00007526   -0.00040630   -0.00012783
     atom    7 type  1   force =    -0.00040630   -0.00007526   -0.00012783
     atom    8 type  1   force =     0.00072301    0.00072301   -0.00023549

     Total force =     0.003743     Total SCF correction =     0.000066

     Computing stress (Cartesian axis) and pressure

     negative rho (up, down):  1.212E-06 0.000E+00
          total   stress  (Ry/bohr**3)                   (kbar)     P=   -6.70
  -0.00006741   0.00006473   0.00000064         -9.92      9.52      0.09
   0.00006473  -0.00006741   0.00000064          9.52     -9.92      0.09
   0.00000064   0.00000064  -0.00000186          0.09      0.09     -0.27

     Damped Dynamics: convergence achieved in  26 steps

     End of damped dynamics calculation

     Final energy =    -373.3592542253 Ry

Begin final coordinates
     new unit-cell volume =   2824.82338 a.u.^3 (   418.59563 Ang^3 )
     density =      0.89132 g/cm^3

CELL_PARAMETERS (alat= 10.28030462)
   1.000000000   0.000000000   0.000000000
   0.000000000   1.000000000   0.000000000
   0.000000000   0.000000000   2.600000000

ATOMIC_POSITIONS (angstrom)
Si       0.000466930   0.000466930   4.301816907
Si       0.018125349   2.738386914   7.192953363
Si       2.738386914   0.018125349   7.192953363
Si       2.722751641   2.722751641   4.532565084
Si       1.321343756   1.321343756   5.783446733
Si       0.856227400   4.624413260   8.303241251
Si       4.624413260   0.856227400   8.303241251
Si       4.121311498   4.121311498   5.785932526
End final coordinates

     Writing output data file Si.Fd-3m_1ML.save/

     General routines

     Parallel routines

   This run was terminated on:  20:24: 1  25Sep2021

   JOB DONE.