     Program PWSCF v.6.4.1 starts on  3Sep2021 at 15:57:43

     K-points division:     npool     =      15
     R & G space division:  proc/nbgrp/npool/nimage =       4
     Reading input from Si.Fd-3m_3ML.scf.in

     Current dimensions of program PWSCF are:
     Max number of different atomic species (ntypx) = 10
     Max number of k-points (npk) =  40000
     Max angular momentum in pseudopotentials (lmaxx) =  3
               file Si.pbe-nl-kjpaw_psl.1.0.0.UPF: wavefunction(s)  3S 3P renormalized

     Subspace diagonalization in iterative solution of the eigenvalue problem:
     a serial algorithm will be used

     Title:
     Relaxation of atomic positions for single monolayer slab of Si using PBE

     bravais-lattice index     =            0
     lattice parameter (alat)  =      10.2787  a.u.
     unit-cell volume          =    4941.0794 (a.u.)^3
     number of atoms/cell      =           24
     number of atomic types    =            1
     number of electrons       =        96.00
     number of Kohn-Sham states=           72
     kinetic-energy cutoff     =      45.0000  Ry
     charge density cutoff     =     175.0000  Ry
     convergence threshold     =      1.0E-08
     mixing beta               =       0.5000
     number of iterations used =            8  local-TF  mixing
     Exchange-correlation      = SLA PW PBX PBC ( 1  4  3  4 0 0)

     celldm(1)=  10.278667  celldm(2)=   0.000000  celldm(3)=   0.000000
     celldm(4)=   0.000000  celldm(5)=   0.000000  celldm(6)=   0.000000

     crystal axes: (cart. coord. in units of alat)
               a(1) = (   1.000000   0.000000   0.000000 )
               a(2) = (   0.000000   1.000000   0.000000 )
               a(3) = (   0.000000   0.000000   4.550000 )

     reciprocal axes: (cart. coord. in units 2 pi/alat)
               b(1) = (  1.000000  0.000000  0.000000 )
               b(2) = (  0.000000  1.000000  0.000000 )
               b(3) = (  0.000000  0.000000  0.219780 )

     PseudoPot. # 1 for Si read from file:
     /share/pseudo/Si.pbe-nl-kjpaw_psl.1.0.0.UPF
     MD5 check sum: 3686bff6734aab787fb18a3c8374d51f
     Pseudo is Projector augmented-wave + core cor, Zval =  4.0
     Generated using "atomic" code by A. Dal Corso v.6.3
     Shape of augmentation charge: PSQ
     Using radial grid of 1141 points,  4 beta functions with:
                l(1) =   0
                l(2) =   0
                l(3) =   1
                l(4) =   1
     Q(r) pseudized with 0 coefficients

     atomic species   valence    mass     pseudopotential
        Si             4.00    28.08600     Si( 1.00)

     No symmetry found

   Cartesian axes

     site n.     atom                  positions (alat units)
         1           Si  tau(   1) = (   0.0756124  -0.0716191   1.2278804  )
         2           Si  tau(   2) = (  -0.0197939   0.4950089   1.7462399  )
         3           Si  tau(   3) = (   0.5089471   0.0237483   1.7462240  )
         4           Si  tau(   4) = (   0.3651381   0.6388592   1.3604723  )
         5           Si  tau(   5) = (   0.2352455   0.2451697   1.4886789  )
         6           Si  tau(   6) = (   0.2456623   0.7582957   1.9814600  )
         7           Si  tau(   7) = (   0.7476655   0.2562766   2.0192249  )
         8           Si  tau(   8) = (   0.7588420   0.7687287   1.4886726  )
         9           Si  tau(   9) = (   0.0026828   0.0012771   2.2551390  )
        10           Si  tau(  10) = (  -0.0063043   0.5057012   2.7567705  )
        11           Si  tau(  11) = (   0.4982167   0.0102249   2.7567821  )
        12           Si  tau(  12) = (   0.4904547   0.5135043   2.2492048  )
        13           Si  tau(  13) = (   0.2482640   0.2602507   2.5044716  )
        14           Si  tau(  14) = (   0.2391985   0.7647100   3.0061214  )
        15           Si  tau(  15) = (   0.7514903   0.2524297   3.0119659  )
        16           Si  tau(  16) = (   0.7436987   0.7556966   2.5044721  )
        17           Si  tau(  17) = (  -0.0037627   0.0076769   3.2797883  )
        18           Si  tau(  18) = (   0.0066824   0.5206890   3.7724484  )
        19           Si  tau(  19) = (   0.4830828  -0.0028500   3.7724593  )
        20           Si  tau(  20) = (   0.4942673   0.5096608   3.2418716  )
        21           Si  tau(  21) = (   0.2617739   0.2709410   3.5148865  )
        22           Si  tau(  22) = (   0.1663690   0.8374215   4.0333201  )
        23           Si  tau(  23) = (   0.8768478   0.1269174   3.9006506  )
        24           Si  tau(  24) = (   0.7329760   0.7421367   3.5149065  )

     number of k points=    34  gaussian smearing, width (Ry)=  0.0100
                       cart. coord. in units 2pi/alat
        k(    1) = (   0.0000000   0.0000000   0.0000000), wk =   0.0312500
        k(    2) = (   0.0000000   0.1250000   0.0000000), wk =   0.0625000
        k(    3) = (   0.0000000   0.2500000   0.0000000), wk =   0.0625000
        k(    4) = (   0.0000000   0.3750000   0.0000000), wk =   0.0625000
        k(    5) = (   0.0000000  -0.5000000   0.0000000), wk =   0.0312500
        k(    6) = (   0.1250000   0.1250000   0.0000000), wk =   0.0625000
        k(    7) = (   0.1250000   0.2500000   0.0000000), wk =   0.0625000
        k(    8) = (   0.1250000   0.3750000   0.0000000), wk =   0.0625000
        k(    9) = (   0.1250000  -0.5000000   0.0000000), wk =   0.0625000
        k(   10) = (   0.2500000   0.2500000   0.0000000), wk =   0.0625000
        k(   11) = (   0.2500000   0.3750000   0.0000000), wk =   0.0625000
        k(   12) = (   0.2500000  -0.5000000   0.0000000), wk =   0.0625000
        k(   13) = (   0.3750000   0.3750000   0.0000000), wk =   0.0625000
        k(   14) = (   0.3750000  -0.5000000   0.0000000), wk =   0.0625000
        k(   15) = (  -0.5000000  -0.5000000   0.0000000), wk =   0.0312500
        k(   16) = (   0.1250000   0.0000000   0.0000000), wk =   0.0625000
        k(   17) = (   0.2500000   0.0000000   0.0000000), wk =   0.0625000
        k(   18) = (   0.3750000   0.0000000   0.0000000), wk =   0.0625000
        k(   19) = (  -0.5000000   0.0000000   0.0000000), wk =   0.0312500
        k(   20) = (  -0.1250000   0.1250000   0.0000000), wk =   0.0625000
        k(   21) = (  -0.1250000   0.2500000   0.0000000), wk =   0.0625000
        k(   22) = (   0.2500000   0.1250000   0.0000000), wk =   0.0625000
        k(   23) = (   0.2500000  -0.1250000   0.0000000), wk =   0.0625000
        k(   24) = (  -0.1250000   0.3750000   0.0000000), wk =   0.0625000
        k(   25) = (   0.3750000   0.1250000   0.0000000), wk =   0.0625000
        k(   26) = (   0.3750000  -0.1250000   0.0000000), wk =   0.0625000
        k(   27) = (  -0.5000000   0.1250000   0.0000000), wk =   0.0625000
        k(   28) = (  -0.2500000   0.2500000   0.0000000), wk =   0.0625000
        k(   29) = (  -0.2500000   0.3750000   0.0000000), wk =   0.0625000
        k(   30) = (   0.3750000   0.2500000   0.0000000), wk =   0.0625000
        k(   31) = (   0.3750000  -0.2500000   0.0000000), wk =   0.0625000
        k(   32) = (  -0.5000000   0.2500000   0.0000000), wk =   0.0625000
        k(   33) = (  -0.3750000   0.3750000   0.0000000), wk =   0.0625000
        k(   34) = (  -0.5000000   0.3750000   0.0000000), wk =   0.0625000

     Initial potential from superposition of free atoms

     starting charge   95.98658, renormalised to   96.00000

     negative rho (up, down):  8.091E-06 0.000E+00
     Starting wfcs are   96 randomized atomic wfcs
     Checking if some PAW data can be deallocated...

     Self-consistent Calculation

     iteration #  1     ecut=    45.00 Ry     beta= 0.50
     CG style diagonalization
     ethr =  1.00E-02,  avg # of iterations =  3.4

     Threshold (ethr) on eigenvalues was too large:
     Diagonalizing with lowered threshold

     CG style diagonalization
     ethr =  8.15E-04,  avg # of iterations =  2.2

     total energy              =   -1121.14279689 Ry
     Harris-Foulkes estimate   =   -1121.24330993 Ry
     estimated scf accuracy    <       0.78494292 Ry

[...]

     iteration #  4     ecut=    45.00 Ry     beta= 0.50
     CG style diagonalization
     c_bands:  1 eigenvalues not converged
     ethr =  6.03E-05,  avg # of iterations =  4.6

[...]

     negative rho (up, down):  8.999E-05 0.000E+00

[...]

     iteration #  9     ecut=    45.00 Ry     beta= 0.50
     CG style diagonalization
     c_bands:  1 eigenvalues not converged
     c_bands:  1 eigenvalues not converged
     ethr =  5.56E-07,  avg # of iterations =  3.1

[...]

     total energy              =   -1121.08762860 Ry
     Harris-Foulkes estimate   =   -1121.08762862 Ry
     estimated scf accuracy    <       0.00000006 Ry

     iteration # 15     ecut=    45.00 Ry     beta= 0.50
     CG style diagonalization
     ethr =  6.04E-11,  avg # of iterations =  3.3

[...]

     End of self-consistent calculation

          k = 0.0000 0.0000 0.0000 ( 25191 PWs)   bands (ev):

    -9.3927  -9.1896  -8.7373  -7.9978  -7.0301  -5.9482  -5.3948  -5.3846
    -5.2982  -5.2915  -5.2673  -5.2405  -5.2318  -5.2092  -5.0760  -5.0632
    -4.8134  -4.0324  -3.8853  -3.4819  -2.4516  -1.5860  -1.5774  -1.4835
    -1.2926  -1.1076  -0.9576  -0.9535  -0.7780  -0.7624  -0.2632  -0.2018
    -0.1856  -0.1392  -0.0795   0.1072   0.1260   0.4532   0.5393   0.6152
     0.9817   1.1092   1.2458   1.5716   1.7799   1.9593   2.1686   2.1758
     2.2089   2.3679   3.1878   3.2139   3.5589   3.5998   3.6463   3.7107
     3.7576   3.9920   4.1776   4.5024   4.6174   4.6210   4.7174   4.8321
     4.9985   5.2212   5.2423   5.4111   5.6635   5.8942   6.1400   6.2433

[...]

          k =-0.5000-0.5000 0.0000 ( 25256 PWs)   bands (ev):

[...]

          k = 0.3750-0.2500 0.0000 ( 25213 PWs)   bands (ev):

[...]

          k =-0.5000 0.3750 0.0000 ( 25258 PWs)   bands (ev):

    -7.8547  -7.8177  -7.7081  -7.5879  -7.3883  -7.2714  -7.0369  -7.0061
    -6.9328  -6.6023  -6.5818  -6.1919  -6.1756  -4.2338  -4.2061  -4.1168
    -4.0557  -3.7924  -3.6776  -3.4232  -3.1026  -2.8013  -2.1287  -1.9360
    -1.3767  -0.9115  -0.8783  -0.6405  -0.3056   0.0610   0.1060   0.2882
     0.3747   0.4816   0.6304   0.7798   0.7995   0.8687   0.9002   1.0229
     1.0729   1.0763   1.1961   1.2006   1.8551   1.8612   1.9802   2.0487
     3.4825   3.5689   4.1956   4.2734   4.3562   4.4579   4.6284   4.7709
     4.9141   4.9695   5.1186   5.2331   5.3641   5.5056   5.5382   5.5794
     5.6920   5.7572   5.8108   5.8369   5.8870   5.9475   6.0461   6.2252

     the Fermi energy is     2.2821 ev

!    total energy              =   -1121.08762862 Ry
     Harris-Foulkes estimate   =   -1121.08762862 Ry
     estimated scf accuracy    <          8.4E-09 Ry

     total all-electron energy =    -13921.388388 Ry

     The total energy is the sum of the following terms:

     one-electron contribution =    -932.18985996 Ry
     hartree contribution      =     500.46640113 Ry
     xc contribution           =    -117.52832975 Ry
     ewald contribution        =     311.76352114 Ry
     one-center paw contrib.   =    -883.59843336 Ry
     smearing contrib. (-TS)   =      -0.00092782 Ry

     convergence has been achieved in  15 iterations

     negative rho (up, down):  5.951E-07 0.000E+00

     Forces acting on atoms (cartesian axes, Ry/au):

     atom    1 type  1   force =     0.00000346    0.00000048    0.00001398
     atom    2 type  1   force =    -0.00000075    0.00000385    0.00000313
     atom    3 type  1   force =    -0.00000097    0.00000349    0.00000329
     atom    4 type  1   force =     0.00000292    0.00000121   -0.00000332
     atom    5 type  1   force =     0.00000067    0.00000236    0.00000477
     atom    6 type  1   force =    -0.00000381    0.00000642    0.00000420
     atom    7 type  1   force =    -0.00000455    0.00000742   -0.00000050
     atom    8 type  1   force =     0.00000218    0.00000302    0.00000474
     atom    9 type  1   force =    -0.00000492    0.00000631   -0.00000025
     atom   10 type  1   force =    -0.00000007   -0.00000011    0.00000118
     atom   11 type  1   force =    -0.00000073   -0.00000085    0.00000120
     atom   12 type  1   force =    -0.00000549    0.00000675    0.00000290
     atom   13 type  1   force =    -0.00000215    0.00000131    0.00000231
     atom   14 type  1   force =     0.00000428   -0.00000625    0.00000329
     atom   15 type  1   force =     0.00000661   -0.00000853    0.00000004
     atom   16 type  1   force =    -0.00000074    0.00000271    0.00000198
     atom   17 type  1   force =     0.00000410   -0.00000690    0.00000452
     atom   18 type  1   force =     0.00000035    0.00000012   -0.00000712
     atom   19 type  1   force =    -0.00000332   -0.00000351   -0.00000701
     atom   20 type  1   force =     0.00000682   -0.00001021   -0.00000165
     atom   21 type  1   force =     0.00000059    0.00000123   -0.00000206
     atom   22 type  1   force =    -0.00000359    0.00000038   -0.00000586
     atom   23 type  1   force =     0.00000354   -0.00000696   -0.00002146
     atom   24 type  1   force =    -0.00000443   -0.00000375   -0.00000229

     Total force =     0.000043     Total SCF correction =     0.000153
     SCF correction compared to forces is large: reduce conv_thr to get better values

     Computing stress (Cartesian axis) and pressure

     negative rho (up, down):  5.951E-07 0.000E+00
          total   stress  (Ry/bohr**3)                   (kbar)     P=   -2.33
  -0.00002311   0.00003967   0.00000025         -3.40      5.84      0.04
   0.00003967  -0.00002319  -0.00000013          5.84     -3.41     -0.02
   0.00000025  -0.00000013  -0.00000122          0.04     -0.02     -0.18

     Writing output data file Si.Fd-3m_3ML.save/

     General routines

     Parallel routines

   This run was terminated on:  16: 4:47   3Sep2021

   JOB DONE.
Note: The following floating-point exceptions are signalling: IEEE_UNDERFLOW_FLAG IEEE_DENORMAL
Note: The following floating-point exceptions are signalling: IEEE_DENORMAL
Note: The following floating-point exceptions are signalling: IEEE_DENORMAL
Note: The following floating-point exceptions are signalling: IEEE_DENORMAL