     Program PWSCF v.6.4.1 starts on  3Sep2021 at 20:49:26

     K-points division:     npool     =      15
     R & G space division:  proc/nbgrp/npool/nimage =       4
     Reading input from Si.Fd-3m_4ML.scf.in

     Current dimensions of program PWSCF are:
     Max number of different atomic species (ntypx) = 10
     Max number of k-points (npk) =  40000
     Max angular momentum in pseudopotentials (lmaxx) =  3
               file Si.pbe-nl-kjpaw_psl.1.0.0.UPF: wavefunction(s)  3S 3P renormalized

     Subspace diagonalization in iterative solution of the eigenvalue problem:
     a serial algorithm will be used

     Message from routine setup:
     DEPRECATED: symmetry with ibrav=0, use correct ibrav instead

     Title:
     Relaxation of atomic positions for single monolayer slab of Si using PBE

     bravais-lattice index     =            0
     lattice parameter (alat)  =      10.2803  a.u.
     unit-cell volume          =    6084.2350 (a.u.)^3
     number of atoms/cell      =           32
     number of atomic types    =            1
     number of electrons       =       128.00
     number of Kohn-Sham states=           96
     kinetic-energy cutoff     =      45.0000  Ry
     charge density cutoff     =     175.0000  Ry
     convergence threshold     =      1.0E-08
     mixing beta               =       0.5000
     number of iterations used =            8  local-TF  mixing
     Exchange-correlation      = SLA PW PBX PBC ( 1  4  3  4 0 0)

     celldm(1)=  10.280305  celldm(2)=   0.000000  celldm(3)=   0.000000
     celldm(4)=   0.000000  celldm(5)=   0.000000  celldm(6)=   0.000000

     crystal axes: (cart. coord. in units of alat)
               a(1) = (   1.000000   0.000000   0.000000 )
               a(2) = (   0.000000   1.000000   0.000000 )
               a(3) = (   0.000000   0.000000   5.600000 )

     reciprocal axes: (cart. coord. in units 2 pi/alat)
               b(1) = (  1.000000  0.000000  0.000000 )
               b(2) = (  0.000000  1.000000  0.000000 )
               b(3) = (  0.000000  0.000000  0.178571 )

     PseudoPot. # 1 for Si read from file:
     /share/pseudo/Si.pbe-nl-kjpaw_psl.1.0.0.UPF
     MD5 check sum: 3686bff6734aab787fb18a3c8374d51f
     Pseudo is Projector augmented-wave + core cor, Zval =  4.0
     Generated using "atomic" code by A. Dal Corso v.6.3
     Shape of augmentation charge: PSQ
     Using radial grid of 1141 points,  4 beta functions with:
                l(1) =   0
                l(2) =   0
                l(3) =   1
                l(4) =   1
     Q(r) pseudized with 0 coefficients

     atomic species   valence    mass     pseudopotential
        Si             4.00    28.08600     Si( 1.00)

      2 Sym. Ops. (no inversion) found

   Cartesian axes

     site n.     atom                  positions (alat units)
         1           Si  tau(   1) = (   0.0020536   0.0020536   0.7762916  )
         2           Si  tau(   2) = (   0.0020166   0.5020106   1.3041714  )
         3           Si  tau(   3) = (   0.5020106   0.0020166   1.3041714  )
         4           Si  tau(   4) = (   0.5020587   0.5020587   0.8312717  )
         5           Si  tau(   5) = (   0.2401214   0.2401214   1.0521219  )
         6           Si  tau(   6) = (   0.2525283   0.7514906   1.5554727  )
         7           Si  tau(   7) = (   0.7514906   0.2525283   1.5554727  )
         8           Si  tau(   8) = (   0.7639943   0.7639943   1.0521292  )
         9           Si  tau(   9) = (   0.0019907   0.0019907   1.8075103  )
        10           Si  tau(  10) = (   0.0019487   0.5019475   2.3128736  )
        11           Si  tau(  11) = (   0.5019475   0.0019487   2.3128736  )
        12           Si  tau(  12) = (   0.5019825   0.5019825   1.8085565  )
        13           Si  tau(  13) = (   0.2519655   0.2519655   2.0604216  )
        14           Si  tau(  14) = (   0.2511362   0.7527391   2.5652728  )
        15           Si  tau(  15) = (   0.7527391   0.2511362   2.5652728  )
        16           Si  tau(  16) = (   0.7519963   0.7519963   2.0604145  )
        17           Si  tau(  17) = (   0.0018984   0.0018984   2.8200458  )
        18           Si  tau(  18) = (   0.0018497   0.5018506   3.3219855  )
        19           Si  tau(  19) = (   0.5018506   0.0018497   3.3219855  )
        20           Si  tau(  20) = (   0.5018904   0.5018904   2.8149608  )
        21           Si  tau(  21) = (   0.2539675   0.2539675   3.0698091  )
        22           Si  tau(  22) = (   0.2457329   0.7579445   3.5740867  )
        23           Si  tau(  23) = (   0.7579445   0.2457329   3.5740867  )
        24           Si  tau(  24) = (   0.7497989   0.7497989   3.0697987  )
        25           Si  tau(  25) = (   0.0017864   0.0017864   3.8447824  )
        26           Si  tau(  26) = (   0.0017178   0.5016840   4.3359123  )
        27           Si  tau(  27) = (   0.5016840   0.0017178   4.3359123  )
        28           Si  tau(  28) = (   0.5017862   0.5017862   3.8078530  )
        29           Si  tau(  29) = (   0.2653552   0.2653552   4.0802529  )
        30           Si  tau(  30) = (   0.1487795   0.8546026   4.5289075  )
        31           Si  tau(  31) = (   0.8546026   0.1487795   4.5289075  )
        32           Si  tau(  32) = (   0.7381959   0.7381959   4.0802710  )

     number of k points=    21  gaussian smearing, width (Ry)=  0.0100
                       cart. coord. in units 2pi/alat
        k(    1) = (   0.0000000   0.0000000   0.0000000), wk =   0.0312500
        k(    2) = (   0.0000000   0.1250000   0.0000000), wk =   0.1250000
        k(    3) = (   0.0000000   0.2500000   0.0000000), wk =   0.1250000
        k(    4) = (   0.0000000   0.3750000   0.0000000), wk =   0.1250000
        k(    5) = (   0.0000000  -0.5000000   0.0000000), wk =   0.0625000
        k(    6) = (   0.1250000   0.1250000   0.0000000), wk =   0.0625000
        k(    7) = (   0.1250000   0.2500000   0.0000000), wk =   0.1250000
        k(    8) = (   0.1250000   0.3750000   0.0000000), wk =   0.1250000
        k(    9) = (   0.1250000  -0.5000000   0.0000000), wk =   0.1250000
        k(   10) = (   0.2500000   0.2500000   0.0000000), wk =   0.0625000
        k(   11) = (   0.2500000   0.3750000   0.0000000), wk =   0.1250000
        k(   12) = (   0.2500000  -0.5000000   0.0000000), wk =   0.1250000
        k(   13) = (   0.3750000   0.3750000   0.0000000), wk =   0.0625000
        k(   14) = (   0.3750000  -0.5000000   0.0000000), wk =   0.1250000
        k(   15) = (  -0.5000000  -0.5000000   0.0000000), wk =   0.0312500
        k(   16) = (  -0.1250000   0.1250000   0.0000000), wk =   0.0625000
        k(   17) = (  -0.1250000   0.2500000   0.0000000), wk =   0.1250000
        k(   18) = (  -0.1250000   0.3750000   0.0000000), wk =   0.1250000
        k(   19) = (  -0.2500000   0.2500000   0.0000000), wk =   0.0625000
        k(   20) = (  -0.2500000   0.3750000   0.0000000), wk =   0.1250000
        k(   21) = (  -0.3750000   0.3750000   0.0000000), wk =   0.0625000

     Initial potential from superposition of free atoms

     starting charge  127.98210, renormalised to  128.00000

     negative rho (up, down):  9.308E-06 0.000E+00
     Starting wfcs are  128 randomized atomic wfcs
     Checking if some PAW data can be deallocated...

     Self-consistent Calculation

     iteration #  1     ecut=    45.00 Ry     beta= 0.50
     CG style diagonalization
     ethr =  1.00E-02,  avg # of iterations =  3.4

     Threshold (ethr) on eigenvalues was too large:
     Diagonalizing with lowered threshold

     CG style diagonalization
     ethr =  7.90E-04,  avg # of iterations =  2.2

     total energy              =   -1494.84578283 Ry
     Harris-Foulkes estimate   =   -1494.97396515 Ry
     estimated scf accuracy    <       1.03260961 Ry

[...]

     iteration #  4     ecut=    45.00 Ry     beta= 0.50
     CG style diagonalization
     c_bands:  1 eigenvalues not converged
     ethr =  6.61E-05,  avg # of iterations =  4.0

[...]

     negative rho (up, down):  1.485E-05 0.000E+00

[...]

     iteration # 11     ecut=    45.00 Ry     beta= 0.50
     CG style diagonalization
     c_bands:  1 eigenvalues not converged
     ethr =  2.97E-07,  avg # of iterations =  3.2

[...]

     total energy              =   -1494.77896145 Ry
     Harris-Foulkes estimate   =   -1494.77896146 Ry
     estimated scf accuracy    <       0.00000002 Ry

     iteration # 18     ecut=    45.00 Ry     beta= 0.50
     CG style diagonalization
     ethr =  1.48E-11,  avg # of iterations =  3.4

[...]

     End of self-consistent calculation

          k = 0.0000 0.0000 0.0000 ( 30983 PWs)   bands (ev):

    -8.8716  -8.7096  -8.4240  -8.0061  -7.4606  -6.8018  -6.0493  -5.2182
    -4.8188  -4.8000  -4.7870  -4.7842  -4.7674  -4.7626  -4.7093  -4.7078
    -4.6969  -4.6928  -4.6636  -4.6624  -4.6340  -4.4830  -4.3081  -3.6158
    -3.5520  -3.3704  -2.4187  -1.4705  -1.0578  -0.7679  -0.7228  -0.7210
    -0.6552  -0.5715  -0.4015  -0.4009  -0.3922  -0.2554  -0.0816  -0.0655
    -0.0499   0.1449   0.2447   0.2529   0.3150   0.4418   0.4441   0.4464
     0.6837   0.7346   0.9974   1.1205   1.2902   1.4236   1.6060   1.9214
     2.0139   2.1618   2.2639   2.3503   2.4278   2.5625   2.6658   2.7924
     2.8234   3.0811   3.6690   3.6912   3.8841   3.9482   3.9724   3.9816
     4.0929   4.1812   4.2234   4.3823   4.6260   4.6423   4.7737   4.8098
     4.9704   5.1379   5.1524   5.2441   5.3513   5.4050   5.5986   5.6332
     5.8017   5.8811   6.0638   6.2210   6.2457   6.3409   6.5349   6.5391

[...]

          k = 0.3750-0.5000 0.0000 ( 31102 PWs)   bands (ev):

[...]

          k =-0.5000-0.5000 0.0000 ( 31016 PWs)   bands (ev):

[...]

          k =-0.3750 0.3750 0.0000 ( 31070 PWs)   bands (ev):

    -7.6988  -7.5637  -7.3262  -6.9990  -6.7682  -6.7230  -6.6915  -6.6399
    -6.5888  -6.5681  -6.5188  -6.4344  -6.2392  -5.9665  -5.9065  -5.6045
    -4.2656  -3.7681  -3.7206  -3.6960  -3.6652  -3.4457  -3.4284  -3.2334
    -3.0870  -2.9975  -2.8012  -2.6821  -2.5985  -2.0979  -1.6468  -1.4374
    -0.8842  -0.5105  -0.3981  -0.2053  -0.1247   0.1697   0.3086   0.3716
     0.4992   0.6377   0.6612   0.8107   1.0351   1.0658   1.0916   1.0936
     1.1426   1.2639   1.2919   1.3069   1.3208   1.4173   1.4473   1.5018
     1.7111   1.9319   2.1249   2.2620   2.2896   2.3139   2.6913   2.7282
     3.2100   3.6747   4.6196   4.6486   4.8472   4.9016   5.0638   5.1112
     5.2046   5.2514   5.3585   5.3619   5.4216   5.5731   5.6678   5.8743
     5.8962   6.1654   6.2077   6.2620   6.2896   6.3988   6.4421   6.4793
     6.4933   6.5450   6.5498   6.5541   6.5818   6.6217   6.6780   6.7821

     the Fermi energy is     2.9238 ev

!    total energy              =   -1494.77896145 Ry
     Harris-Foulkes estimate   =   -1494.77896145 Ry
     estimated scf accuracy    <          1.0E-08 Ry

     total all-electron energy =    -18561.846641 Ry

     The total energy is the sum of the following terms:

     one-electron contribution =   -1392.55607372 Ry
     hartree contribution      =     744.68780215 Ry
     xc contribution           =    -156.73299186 Ry
     ewald contribution        =     487.98658867 Ry
     one-center paw contrib.   =   -1178.15909218 Ry
     smearing contrib. (-TS)   =      -0.00519451 Ry

     convergence has been achieved in  18 iterations

     negative rho (up, down):  3.938E-07 0.000E+00

     Forces acting on atoms (cartesian axes, Ry/au):

     atom    1 type  1   force =    -0.00000355   -0.00000355   -0.00001717
     atom    2 type  1   force =    -0.00000220   -0.00000227   -0.00000167
     atom    3 type  1   force =    -0.00000227   -0.00000220   -0.00000167
     atom    4 type  1   force =    -0.00000352   -0.00000352    0.00001881
     atom    5 type  1   force =    -0.00001166   -0.00001166   -0.00000496
     atom    6 type  1   force =    -0.00000196   -0.00000247   -0.00000087
     atom    7 type  1   force =    -0.00000247   -0.00000196   -0.00000087
     atom    8 type  1   force =     0.00000464    0.00000464   -0.00000489
     atom    9 type  1   force =    -0.00000142   -0.00000142   -0.00000254
     atom   10 type  1   force =    -0.00000033   -0.00000037   -0.00000108
     atom   11 type  1   force =    -0.00000037   -0.00000033   -0.00000108
     atom   12 type  1   force =    -0.00000138   -0.00000138   -0.00000077
     atom   13 type  1   force =    -0.00000165   -0.00000165   -0.00000194
     atom   14 type  1   force =    -0.00000020   -0.00000053    0.00000050
     atom   15 type  1   force =    -0.00000053   -0.00000020    0.00000050
     atom   16 type  1   force =    -0.00000103   -0.00000103   -0.00000189
     atom   17 type  1   force =     0.00000070    0.00000070    0.00000173
     atom   18 type  1   force =     0.00000165    0.00000159    0.00000213
     atom   19 type  1   force =     0.00000159    0.00000165    0.00000213
     atom   20 type  1   force =     0.00000070    0.00000070    0.00000217
     atom   21 type  1   force =     0.00000083    0.00000083    0.00000272
     atom   22 type  1   force =     0.00000229    0.00000106    0.00000089
     atom   23 type  1   force =     0.00000106    0.00000229    0.00000089
     atom   24 type  1   force =     0.00000072    0.00000072    0.00000279
     atom   25 type  1   force =     0.00000235    0.00000235   -0.00000012
     atom   26 type  1   force =     0.00000264    0.00000272    0.00000039
     atom   27 type  1   force =     0.00000272    0.00000264    0.00000039
     atom   28 type  1   force =     0.00000235    0.00000235    0.00000050
     atom   29 type  1   force =     0.00000270    0.00000270    0.00000063
     atom   30 type  1   force =     0.00000354    0.00000189    0.00000185
     atom   31 type  1   force =     0.00000189    0.00000354    0.00000185
     atom   32 type  1   force =     0.00000214    0.00000214    0.00000069

     Total force =     0.000036     Total SCF correction =     0.000193
     SCF correction compared to forces is large: reduce conv_thr to get better values

     Computing stress (Cartesian axis) and pressure

     negative rho (up, down):  3.938E-07 0.000E+00
          total   stress  (Ry/bohr**3)                   (kbar)     P=    0.90
   0.00001029   0.00004456   0.00000025          1.51      6.55      0.04
   0.00004456   0.00001029   0.00000025          6.55      1.51      0.04
   0.00000025   0.00000025  -0.00000221          0.04      0.04     -0.32

     Writing output data file Si.Fd-3m_4ML.save/

     General routines

     Parallel routines

   This run was terminated on:  20:59:51   3Sep2021

   JOB DONE.
Note: The following floating-point exceptions are signalling: IEEE_DENORMAL
Note: The following floating-point exceptions are signalling:Note: The following floating-point exceptions are signalling: IEEE_DENORMAL
 IEEE_UNDERFLOW_FLAG IEEE_DENORMAL
Note: The following floating-point exceptions are signalling: IEEE_DENORMAL