     Program PWSCF v.6.4.1 starts on 25Sep2021 at 10:56:39

     K-points division:     npool     =       3
     R & G space division:  proc/nbgrp/npool/nimage =       4
     Reading input from Si.Fd-3m_1ML.relax_0.005.in

     Current dimensions of program PWSCF are:
     Max number of different atomic species (ntypx) = 10
     Max number of k-points (npk) =  40000
     Max angular momentum in pseudopotentials (lmaxx) =  3
               file Si.pbe-nl-kjpaw_psl.1.0.0.UPF: wavefunction(s)  3S 3P renormalized

     Subspace diagonalization in iterative solution of the eigenvalue problem:
     a serial algorithm will be used

     Message from routine setup:
     DEPRECATED: symmetry with ibrav=0, use correct ibrav instead
     Message from routine setup:
     Dynamics, you should have no symmetries

     Title:
     Relaxation of atomic positions for single monolayer slab of Si using PBE

     bravais-lattice index     =            0
     lattice parameter (alat)  =      10.3836  a.u.
     unit-cell volume          =    2910.8528 (a.u.)^3
     number of atoms/cell      =            8
     number of atomic types    =            1
     number of electrons       =        32.00
     number of Kohn-Sham states=           24
     kinetic-energy cutoff     =      45.0000  Ry
     charge density cutoff     =     175.0000  Ry
     convergence threshold     =      1.0E-08
     mixing beta               =       0.5000
     number of iterations used =            8  local-TF  mixing
     Exchange-correlation      = SLA PW PBX PBC ( 1  4  3  4 0 0)
     nstep                     =          150

     celldm(1)=  10.383624  celldm(2)=   0.000000  celldm(3)=   0.000000
     celldm(4)=   0.000000  celldm(5)=   0.000000  celldm(6)=   0.000000

     crystal axes: (cart. coord. in units of alat)
               a(1) = (   1.000000   0.000000   0.000000 )
               a(2) = (   0.000000   1.000000   0.000000 )
               a(3) = (   0.000000   0.000000   2.600000 )

     reciprocal axes: (cart. coord. in units 2 pi/alat)
               b(1) = (  1.000000  0.000000  0.000000 )
               b(2) = (  0.000000  1.000000  0.000000 )
               b(3) = (  0.000000  0.000000  0.384615 )

     PseudoPot. # 1 for Si read from file:
     /share/pseudo/Si.pbe-nl-kjpaw_psl.1.0.0.UPF
     MD5 check sum: 3686bff6734aab787fb18a3c8374d51f
     Pseudo is Projector augmented-wave + core cor, Zval =  4.0
     Generated using "atomic" code by A. Dal Corso v.6.3
     Shape of augmentation charge: PSQ
     Using radial grid of 1141 points,  4 beta functions with:
                l(1) =   0
                l(2) =   0
                l(3) =   1
                l(4) =   1
     Q(r) pseudized with 0 coefficients

     atomic species   valence    mass     pseudopotential
        Si             4.00    28.08600     Si( 1.00)

      2 Sym. Ops. (no inversion) found

   Cartesian axes

     site n.     atom                  positions (alat units)
         1           Si  tau(   1) = (   0.0000149   0.0000149   0.7976247  )
         2           Si  tau(   2) = (   0.0000143   0.4975297   1.2973515  )
         3           Si  tau(   3) = (   0.4975297   0.0000143   1.2973515  )
         4           Si  tau(   4) = (   0.4975294   0.4975294   0.7976225  )
         5           Si  tau(   5) = (   0.2487823   0.2487823   1.0410515  )
         6           Si  tau(   6) = (   0.2487589   0.7462983   1.5407919  )
         7           Si  tau(   7) = (   0.7462983   0.2487589   1.5407919  )
         8           Si  tau(   8) = (   0.7462754   0.7462754   1.0410512  )

     number of k points=    21  gaussian smearing, width (Ry)=  0.0100
                       cart. coord. in units 2pi/alat
        k(    1) = (   0.0000000   0.0000000   0.0000000), wk =   0.0312500
        k(    2) = (   0.0000000   0.1250000   0.0000000), wk =   0.1250000
        k(    3) = (   0.0000000   0.2500000   0.0000000), wk =   0.1250000
        k(    4) = (   0.0000000   0.3750000   0.0000000), wk =   0.1250000
        k(    5) = (   0.0000000  -0.5000000   0.0000000), wk =   0.0625000
        k(    6) = (   0.1250000   0.1250000   0.0000000), wk =   0.0625000
        k(    7) = (   0.1250000   0.2500000   0.0000000), wk =   0.1250000
        k(    8) = (   0.1250000   0.3750000   0.0000000), wk =   0.1250000
        k(    9) = (   0.1250000  -0.5000000   0.0000000), wk =   0.1250000
        k(   10) = (   0.2500000   0.2500000   0.0000000), wk =   0.0625000
        k(   11) = (   0.2500000   0.3750000   0.0000000), wk =   0.1250000
        k(   12) = (   0.2500000  -0.5000000   0.0000000), wk =   0.1250000
        k(   13) = (   0.3750000   0.3750000   0.0000000), wk =   0.0625000
        k(   14) = (   0.3750000  -0.5000000   0.0000000), wk =   0.1250000
        k(   15) = (  -0.5000000  -0.5000000   0.0000000), wk =   0.0312500
        k(   16) = (  -0.1250000   0.1250000   0.0000000), wk =   0.0625000
        k(   17) = (  -0.1250000   0.2500000   0.0000000), wk =   0.1250000
        k(   18) = (  -0.1250000   0.3750000   0.0000000), wk =   0.1250000
        k(   19) = (  -0.2500000   0.2500000   0.0000000), wk =   0.0625000
        k(   20) = (  -0.2500000   0.3750000   0.0000000), wk =   0.1250000
        k(   21) = (  -0.3750000   0.3750000   0.0000000), wk =   0.0625000

     Initial potential from superposition of free atoms

     starting charge   31.99553, renormalised to   32.00000

     negative rho (up, down):  5.352E-06 0.000E+00
     Starting wfcs are   32 randomized atomic wfcs
     Checking if some PAW data can be deallocated...

     Self-consistent Calculation

     iteration #  1     ecut=    45.00 Ry     beta= 0.50
     CG style diagonalization
     ethr =  1.00E-02,  avg # of iterations =  3.2

     Threshold (ethr) on eigenvalues was too large:
     Diagonalizing with lowered threshold

     CG style diagonalization
     ethr =  8.29E-04,  avg # of iterations =  2.2

     total energy              =    -373.29528443 Ry
     Harris-Foulkes estimate   =    -373.33640593 Ry
     estimated scf accuracy    <       0.27007256 Ry

[...]

     iteration #  4     ecut=    45.00 Ry     beta= 0.50
     CG style diagonalization
     c_bands:  1 eigenvalues not converged
     c_bands:  1 eigenvalues not converged
     c_bands:  1 eigenvalues not converged
     ethr =  2.42E-05,  avg # of iterations =  4.9

[...]

     negative rho (up, down):  1.086E-07 0.000E+00

[...]

     End of self-consistent calculation

          k = 0.0000 0.0000 0.0000 ( 14817 PWs)   bands (ev):

   -11.7815  -9.6525  -8.4274  -8.4272  -7.6398  -7.6396  -6.3696  -3.8881
    -3.8881  -3.0105  -2.7699  -2.6246  -2.2369  -2.2365  -1.6456  -0.8776
    -0.8768  -0.5992   0.2640   0.7256   0.8801   1.7323   1.7333   1.8551

[...]

          k =-0.5000-0.5000 0.0000 ( 14944 PWs)   bands (ev):

[...]

     the Fermi energy is    -1.0315 ev

!    total energy              =    -373.27443549 Ry
     Harris-Foulkes estimate   =    -373.27443549 Ry
     estimated scf accuracy    <          8.6E-09 Ry

     convergence has been achieved in  13 iterations

[...]

     Forces acting on atoms (cartesian axes, Ry/au):

     atom    1 type  1   force =    -0.00539774   -0.00539774    0.00383462
     atom    2 type  1   force =    -0.00496855    0.00002386    0.00051795
     atom    3 type  1   force =     0.00002386   -0.00496855    0.00051795
     atom    4 type  1   force =     0.00063229    0.00063229   -0.00071329
     atom    5 type  1   force =     0.00005973    0.00005973   -0.00006549
     atom    6 type  1   force =     0.00365563    0.00131148   -0.00171362
     atom    7 type  1   force =     0.00131148    0.00365563   -0.00171362
     atom    8 type  1   force =     0.00468328    0.00468328   -0.00066451

     Total force =     0.014302     Total SCF correction =     0.000133

     Computing stress (Cartesian axis) and pressure

     negative rho (up, down):  1.281E-06 0.000E+00
          total   stress  (Ry/bohr**3)                   (kbar)     P=  -11.87
  -0.00011680   0.00002085   0.00000847        -17.18      3.07      1.25
   0.00002085  -0.00011680   0.00000847          3.07    -17.18      1.25
   0.00000847   0.00000847  -0.00000839          1.25      1.25     -1.23

     Damped Dynamics Calculation

     Entering Dynamics:    iteration =     1

ATOMIC_POSITIONS (angstrom)
Si      -0.001171606  -0.001171606   4.383660405
Si      -0.001075511   2.733820208   7.128777892
Si       2.733820208  -0.001075511   7.128777892
Si       2.733960035   2.733960035   4.382592488
Si       1.367017415   1.367017415   5.720330736
Si       1.367723892   4.101047802   8.465910341
Si       4.101047802   1.367723892   8.465910341
Si       4.101704513   4.101704513   5.720190382

     Writing output data file Si.Fd-3m_1ML.save/
     NEW-OLD atomic charge density approx. for the potential

[...]

     CG style diagonalization
     c_bands:  2 eigenvalues not converged
     c_bands:  1 eigenvalues not converged
     c_bands:  2 eigenvalues not converged
     c_bands:  1 eigenvalues not converged
     c_bands:  1 eigenvalues not converged
     ethr =  1.45E-08,  avg # of iterations =  7.9

[...]

     <vel(dt)|acc(dt)> =   0.99399859

[...]

     CG style diagonalization
     ethr =  6.09E-08,  avg # of iterations =  6.9

[...]

     Entering Dynamics:    iteration =    21

     <vel(dt)|acc(dt)> =   0.91624259

ATOMIC_POSITIONS (angstrom)
Si      -0.010343389  -0.010343389   4.570672561
Si      -0.011770920   2.736479648   7.193584699
Si       2.736479648  -0.011770920   7.193584699
Si       2.737289187   2.737289187   4.302622502
Si       1.408915619   1.408915619   5.793746561
Si       1.900425622   3.575517617   8.274949563
Si       3.575517617   1.900425622   8.274949563
Si       4.066513364   4.066513364   5.792040329

     Writing output data file Si.Fd-3m_1ML.save/
     NEW-OLD atomic charge density approx. for the potential

[...]

     Self-consistent Calculation

     iteration #  1     ecut=    45.00 Ry     beta= 0.50
     CG style diagonalization
     c_bands:  1 eigenvalues not converged
     ethr =  1.00E-06,  avg # of iterations =  6.0

     Threshold (ethr) on eigenvalues was too large:
     Diagonalizing with lowered threshold

     CG style diagonalization
     c_bands:  1 eigenvalues not converged
     ethr =  9.34E-08,  avg # of iterations =  5.7

[...]

     total energy              =    -373.35465514 Ry
     Harris-Foulkes estimate   =    -373.35465515 Ry
     estimated scf accuracy    <       0.00000002 Ry

     iteration #  7     ecut=    45.00 Ry     beta= 0.50
     CG style diagonalization
     ethr =  5.17E-11,  avg # of iterations =  4.1

[...]

     End of self-consistent calculation

[...]

          k = 0.3750-0.5000 0.0000 ( 14888 PWs)   bands (ev):

[...]

          k =-0.3750 0.3750 0.0000 ( 14860 PWs)   bands (ev):

   -10.9884 -10.3032  -9.5364  -9.3461  -7.8160  -6.7377  -5.6726  -5.3869
    -3.8426  -3.4082  -2.8005  -2.2304  -1.9970  -1.4781  -1.3691  -1.3624
    -0.3308   0.4062   0.9506   1.4653   1.8008   1.8339   2.4308   2.6931

     the Fermi energy is    -0.6960 ev

!    total energy              =    -373.35465516 Ry
     Harris-Foulkes estimate   =    -373.35465515 Ry
     estimated scf accuracy    <          3.5E-09 Ry

     convergence has been achieved in   7 iterations

     negative rho (up, down):  1.886E-06 0.000E+00

     Forces acting on atoms (cartesian axes, Ry/au):

     atom    1 type  1   force =     0.00039050    0.00039050    0.00020467
     atom    2 type  1   force =     0.00114350    0.00054870   -0.00102129
     atom    3 type  1   force =     0.00054870    0.00114350   -0.00102129
     atom    4 type  1   force =    -0.00005370   -0.00005370    0.00027854
     atom    5 type  1   force =     0.00099200    0.00099200    0.00011474
     atom    6 type  1   force =    -0.00029195   -0.00140200    0.00049090
     atom    7 type  1   force =    -0.00140200   -0.00029195    0.00049090
     atom    8 type  1   force =    -0.00132705   -0.00132705    0.00046284

     Total force =     0.004004     Total SCF correction =     0.000047

     Computing stress (Cartesian axis) and pressure

     negative rho (up, down):  1.886E-06 0.000E+00
          total   stress  (Ry/bohr**3)                   (kbar)     P=   -9.48
  -0.00009603   0.00005804  -0.00000146        -14.13      8.54     -0.21
   0.00005804  -0.00009603  -0.00000146          8.54    -14.13     -0.21
  -0.00000146  -0.00000146  -0.00000117         -0.21     -0.21     -0.17

     Damped Dynamics: convergence achieved in  21 steps

     End of damped dynamics calculation

     Final energy =    -373.3546551558 Ry

Begin final coordinates
     new unit-cell volume =   2910.85278 a.u.^3 (   431.34387 Ang^3 )
     density =      0.86498 g/cm^3

CELL_PARAMETERS (alat= 10.38362426)
   1.000000000   0.000000000   0.000000000
   0.000000000   1.000000000   0.000000000
   0.000000000   0.000000000   2.600000000

ATOMIC_POSITIONS (angstrom)
Si      -0.010343389  -0.010343389   4.570672561
Si      -0.011770920   2.736479648   7.193584699
Si       2.736479648  -0.011770920   7.193584699
Si       2.737289187   2.737289187   4.302622502
Si       1.408915619   1.408915619   5.793746561
Si       1.900425622   3.575517617   8.274949563
Si       3.575517617   1.900425622   8.274949563
Si       4.066513364   4.066513364   5.792040329
End final coordinates

     Writing output data file Si.Fd-3m_1ML.save/

     General routines

     Parallel routines

   This run was terminated on:  15:19:54  25Sep2021

   JOB DONE.