     Program PWSCF v.6.4.1 starts on  4Sep2021 at 17:24: 2

     K-points division:     npool     =      15
     R & G space division:  proc/nbgrp/npool/nimage =       4
     Reading input from Si.Fd-3m_6ML.scf.in

     Current dimensions of program PWSCF are:
     Max number of different atomic species (ntypx) = 10
     Max number of k-points (npk) =  40000
     Max angular momentum in pseudopotentials (lmaxx) =  3
               file Si.pbe-nl-kjpaw_psl.1.0.0.UPF: wavefunction(s)  3S 3P renormalized

     Subspace diagonalization in iterative solution of the eigenvalue problem:
     a serial algorithm will be used

     Message from routine setup:
     DEPRECATED: symmetry with ibrav=0, use correct ibrav instead

     Title:
     Relaxation of atomic positions for single monolayer slab of Si using PBE

     bravais-lattice index     =            0
     lattice parameter (alat)  =      10.2803  a.u.
     unit-cell volume          =    8257.1760 (a.u.)^3
     number of atoms/cell      =           48
     number of atomic types    =            1
     number of electrons       =       192.00
     number of Kohn-Sham states=          144
     kinetic-energy cutoff     =      45.0000  Ry
     charge density cutoff     =     175.0000  Ry
     convergence threshold     =      1.0E-08
     mixing beta               =       0.5000
     number of iterations used =            8  local-TF  mixing
     Exchange-correlation      = SLA PW PBX PBC ( 1  4  3  4 0 0)

     celldm(1)=  10.280305  celldm(2)=   0.000000  celldm(3)=   0.000000
     celldm(4)=   0.000000  celldm(5)=   0.000000  celldm(6)=   0.000000

     crystal axes: (cart. coord. in units of alat)
               a(1) = (   1.000000   0.000000   0.000000 )
               a(2) = (   0.000000   1.000000   0.000000 )
               a(3) = (   0.000000   0.000000   7.600000 )

     reciprocal axes: (cart. coord. in units 2 pi/alat)
               b(1) = (  1.000000  0.000000  0.000000 )
               b(2) = (  0.000000  1.000000  0.000000 )
               b(3) = (  0.000000  0.000000  0.131579 )

     PseudoPot. # 1 for Si read from file:
     /share/pseudo/Si.pbe-nl-kjpaw_psl.1.0.0.UPF
     MD5 check sum: 3686bff6734aab787fb18a3c8374d51f
     Pseudo is Projector augmented-wave + core cor, Zval =  4.0
     Generated using "atomic" code by A. Dal Corso v.6.3
     Shape of augmentation charge: PSQ
     Using radial grid of 1141 points,  4 beta functions with:
                l(1) =   0
                l(2) =   0
                l(3) =   1
                l(4) =   1
     Q(r) pseudized with 0 coefficients

     atomic species   valence    mass     pseudopotential
        Si             4.00    28.08600     Si( 1.00)

      2 Sym. Ops. (no inversion) found

   Cartesian axes

     site n.     atom                  positions (alat units)
         1           Si  tau(   1) = (   0.0020055   0.0020055   0.7944230  )
         2           Si  tau(   2) = (   0.0019909   0.5019779   1.2992560  )
         3           Si  tau(   3) = (   0.5019779   0.0019909   1.2992560  )
         4           Si  tau(   4) = (   0.5020142   0.5020142   0.8003833  )
         5           Si  tau(   5) = (   0.2507091   0.2507091   1.0477223  )
         6           Si  tau(   6) = (   0.2520457   0.7519194   1.5500424  )
         7           Si  tau(   7) = (   0.7519194   0.2520457   1.5500424  )
         8           Si  tau(   8) = (   0.7533158   0.7533158   1.0477413  )
         9           Si  tau(   9) = (   0.0019761   0.0019761   1.8024821  )
        10           Si  tau(  10) = (   0.0019660   0.5019625   2.3073279  )
        11           Si  tau(  11) = (   0.5019625   0.0019660   2.3073279  )
        12           Si  tau(  12) = (   0.5019724   0.5019724   1.8026454  )
        13           Si  tau(  13) = (   0.2519510   0.2519510   2.0548881  )
        14           Si  tau(  14) = (   0.2519482   0.7519728   2.5597202  )
        15           Si  tau(  15) = (   0.7519728   0.2519482   2.5597202  )
        16           Si  tau(  16) = (   0.7519953   0.7519953   2.0548870  )
        17           Si  tau(  17) = (   0.0019505   0.0019505   2.8120742  )
        18           Si  tau(  18) = (   0.0019350   0.5019323   3.3167443  )
        19           Si  tau(  19) = (   0.5019323   0.0019350   3.3167443  )
        20           Si  tau(  20) = (   0.5019460   0.5019460   2.8119624  )
        21           Si  tau(  21) = (   0.2519982   0.2519982   3.0644015  )
        22           Si  tau(  22) = (   0.2517990   0.7520578   3.5691656  )
        23           Si  tau(  23) = (   0.7520578   0.2517990   3.5691656  )
        24           Si  tau(  24) = (   0.7518929   0.7518929   3.0643991  )
        25           Si  tau(  25) = (   0.0019134   0.0019134   3.8219495  )
        26           Si  tau(  26) = (   0.0018922   0.5018892   4.3263620  )
        27           Si  tau(  27) = (   0.5018892   0.0018922   4.3263620  )
        28           Si  tau(  28) = (   0.5019099   0.5019099   3.8211438  )
        29           Si  tau(  29) = (   0.2522368   0.2522368   4.0739779  )
        30           Si  tau(  30) = (   0.2510187   0.7527493   4.5787676  )
        31           Si  tau(  31) = (   0.7527493   0.2510187   4.5787676  )
        32           Si  tau(  32) = (   0.7515777   0.7515777   4.0739777  )
        33           Si  tau(  33) = (   0.0018589   0.0018589   4.8337232  )
        34           Si  tau(  34) = (   0.0018407   0.5018376   5.3357302  )
        35           Si  tau(  35) = (   0.5018376   0.0018407   5.3357302  )
        36           Si  tau(  36) = (   0.5018554   0.5018554   4.8284667  )
        37           Si  tau(  37) = (   0.2539646   0.2539646   5.0834500  )
        38           Si  tau(  38) = (   0.2457012   0.7579641   5.5878748  )
        39           Si  tau(  39) = (   0.7579641   0.2457012   5.5878748  )
        40           Si  tau(  40) = (   0.7497375   0.7497375   5.0834498  )
        41           Si  tau(  41) = (   0.0017974   0.0017974   5.8586720  )
        42           Si  tau(  42) = (   0.0017389   0.5017093   6.3498246  )
        43           Si  tau(  43) = (   0.5017093   0.0017389   6.3498246  )
        44           Si  tau(  44) = (   0.5017964   0.5017964   5.8216689  )
        45           Si  tau(  45) = (   0.2653766   0.2653766   6.0941433  )
        46           Si  tau(  46) = (   0.1487951   0.8546331   6.5428227  )
        47           Si  tau(  47) = (   0.8546331   0.1487951   6.5428227  )
        48           Si  tau(  48) = (   0.7382030   0.7382030   6.0941586  )

     number of k points=    21  gaussian smearing, width (Ry)=  0.0100
                       cart. coord. in units 2pi/alat
        k(    1) = (   0.0000000   0.0000000   0.0000000), wk =   0.0312500
        k(    2) = (   0.0000000   0.1250000   0.0000000), wk =   0.1250000
        k(    3) = (   0.0000000   0.2500000   0.0000000), wk =   0.1250000
        k(    4) = (   0.0000000   0.3750000   0.0000000), wk =   0.1250000
        k(    5) = (   0.0000000  -0.5000000   0.0000000), wk =   0.0625000
        k(    6) = (   0.1250000   0.1250000   0.0000000), wk =   0.0625000
        k(    7) = (   0.1250000   0.2500000   0.0000000), wk =   0.1250000
        k(    8) = (   0.1250000   0.3750000   0.0000000), wk =   0.1250000
        k(    9) = (   0.1250000  -0.5000000   0.0000000), wk =   0.1250000
        k(   10) = (   0.2500000   0.2500000   0.0000000), wk =   0.0625000
        k(   11) = (   0.2500000   0.3750000   0.0000000), wk =   0.1250000
        k(   12) = (   0.2500000  -0.5000000   0.0000000), wk =   0.1250000
        k(   13) = (   0.3750000   0.3750000   0.0000000), wk =   0.0625000
        k(   14) = (   0.3750000  -0.5000000   0.0000000), wk =   0.1250000
        k(   15) = (  -0.5000000  -0.5000000   0.0000000), wk =   0.0312500
        k(   16) = (  -0.1250000   0.1250000   0.0000000), wk =   0.0625000
        k(   17) = (  -0.1250000   0.2500000   0.0000000), wk =   0.1250000
        k(   18) = (  -0.1250000   0.3750000   0.0000000), wk =   0.1250000
        k(   19) = (  -0.2500000   0.2500000   0.0000000), wk =   0.0625000
        k(   20) = (  -0.2500000   0.3750000   0.0000000), wk =   0.1250000
        k(   21) = (  -0.3750000   0.3750000   0.0000000), wk =   0.0625000

     Initial potential from superposition of free atoms

     starting charge  191.97316, renormalised to  192.00000

     negative rho (up, down):  4.915E-06 0.000E+00
     Starting wfcs are  192 randomized atomic wfcs
     Checking if some PAW data can be deallocated...

     Self-consistent Calculation

     iteration #  1     ecut=    45.00 Ry     beta= 0.50
     CG style diagonalization
     ethr =  1.00E-02,  avg # of iterations =  3.4

     Threshold (ethr) on eigenvalues was too large:
     Diagonalizing with lowered threshold

     CG style diagonalization
     ethr =  7.59E-04,  avg # of iterations =  2.2

     total energy              =   -2242.50034298 Ry
     Harris-Foulkes estimate   =   -2242.68054442 Ry
     estimated scf accuracy    <       1.46155066 Ry

[...]

     iteration #  4     ecut=    45.00 Ry     beta= 0.50
     CG style diagonalization
     c_bands:  3 eigenvalues not converged
     c_bands:  5 eigenvalues not converged
     ethr =  2.97E-05,  avg # of iterations =  5.8

[...]

     iteration #  8     ecut=    45.00 Ry     beta= 0.50
     CG style diagonalization
     c_bands:  1 eigenvalues not converged
     c_bands:  3 eigenvalues not converged
     ethr =  1.40E-06,  avg # of iterations =  3.8

[...]

     negative rho (up, down):  1.455E-03 0.000E+00

[...]

     total energy              =   -2242.40916732 Ry
     Harris-Foulkes estimate   =   -2242.40916733 Ry
     estimated scf accuracy    <       0.00000001 Ry

     iteration # 19     ecut=    45.00 Ry     beta= 0.50
     CG style diagonalization
     ethr =  7.41E-12,  avg # of iterations =  3.4

[...]

     End of self-consistent calculation

          k = 0.0000 0.0000 0.0000 ( 42019 PWs)   bands (ev):

    -8.0784  -7.9840  -7.8564  -7.6695  -7.4238  -7.1204  -6.7612  -6.3496
    -5.8903  -5.3881  -4.8466  -4.2701  -3.9929  -3.9924  -3.9920  -3.9919
    -3.9637  -3.9478  -3.9407  -3.9397  -3.9286  -3.9213  -3.8965  -3.8900
    -3.8879  -3.8806  -3.8511  -3.8502  -3.8405  -3.8365  -3.8178  -3.8148
    -3.7732  -3.6476  -3.5892  -3.0191  -2.6999  -2.6980  -2.3684  -1.7080
    -1.0436  -0.3838  -0.2065   0.0180   0.0240   0.0249   0.0419   0.1481
     0.1999   0.2037   0.2554   0.2727   0.4212   0.4248   0.4294   0.5131
     0.6337   0.6699   0.6716   0.7662   0.8222   0.8444   0.8615   0.9958
     1.0171   1.0183   1.0217   1.1290   1.1309   1.1650   1.2704   1.2721
     1.4358   1.4558   1.6059   1.6315   1.6837   1.8730   1.9569   2.1638
     2.2059   2.2737   2.4922   2.6280   2.7532   2.8414   3.0041   3.1634
     3.1919   3.1941   3.2365   3.3664   3.5140   3.5386   3.5969   3.6808
     3.7154   3.9476   4.4490   4.4527   4.5692   4.5898   4.6302   4.6315
     4.6665   4.6922   4.7334   4.7895   4.9541   5.0152   5.0362   5.0627
     5.1726   5.2353   5.2424   5.3557   5.5295   5.5525   5.6453   5.6468
     5.8619   5.8639   5.9100   5.9434   6.0631   6.0785   6.2129   6.2850
     6.3382   6.3861   6.4665   6.5402   6.6416   6.7027   6.7382   6.7450
     6.9538   6.9952   7.0999   7.1108   7.2920   7.3666   7.3680   7.4781

[...]

          k = 0.3750-0.5000 0.0000 ( 42186 PWs)   bands (ev):

[...]

          k =-0.5000-0.5000 0.0000 ( 42128 PWs)   bands (ev):

[...]

          k =-0.3750 0.3750 0.0000 ( 42180 PWs)   bands (ev):

    -6.9009  -6.8192  -6.7132  -6.5583  -6.3615  -6.1316  -5.9357  -5.9317
    -5.9062  -5.8875  -5.8573  -5.8414  -5.7866  -5.7642  -5.7147  -5.6972
    -5.6864  -5.6139  -5.5622  -5.4008  -5.2488  -5.1032  -5.0358  -4.7524
    -3.3598  -3.0161  -2.9937  -2.9512  -2.9481  -2.8239  -2.7967  -2.7933
    -2.7380  -2.6082  -2.5695  -2.4413  -2.3579  -2.2718  -2.1168  -2.0462
    -1.9770  -1.8823  -1.8192  -1.6928  -1.3162  -0.9696  -0.6955  -0.5466
    -0.3119   0.1216   0.2516   0.2787   0.4828   0.6346   0.6565   0.7890
     1.0255   1.0289   1.1691   1.2217   1.3314   1.3781   1.4236   1.5458
     1.5994   1.6862   1.8393   1.8599   1.8600   1.9166   1.9207   1.9398
     1.9577   1.9604   2.0088   2.0625   2.0808   2.1074   2.1160   2.2032
     2.2254   2.2458   2.2784   2.3882   2.4111   2.4522   2.5381   2.6887
     2.8309   2.9505   3.0284   3.1476   3.1866   3.1919   3.5438   3.5735
     4.0630   4.5230   5.4261   5.5467   5.5584   5.6300   5.6735   5.7529
     5.8765   5.9049   5.9439   5.9649   6.0033   6.0269   6.0766   6.1446
     6.2157   6.2159   6.3536   6.4222   6.5158   6.5722   6.7092   6.7655
     6.8693   6.9933   7.0512   7.0743   7.0919   7.1123   7.1750   7.2133
     7.2679   7.2779   7.3145   7.3208   7.3454   7.3460   7.3524   7.3819
     7.3911   7.4011   7.4059   7.4231   7.4524   7.5057   7.5144   7.6127

     the Fermi energy is     3.7744 ev

!    total energy              =   -2242.40916732 Ry
     Harris-Foulkes estimate   =   -2242.40916733 Ry
     estimated scf accuracy    <          5.2E-09 Ry

     total all-electron energy =    -27843.010686 Ry

     The total energy is the sum of the following terms:

     one-electron contribution =   -2248.51869007 Ry
     hartree contribution      =    1202.65993684 Ry
     xc contribution           =    -235.43254840 Ry
     ewald contribution        =     806.13861161 Ry
     one-center paw contrib.   =   -1767.25107312 Ry
     smearing contrib. (-TS)   =      -0.00540418 Ry

     convergence has been achieved in  19 iterations

     negative rho (up, down):  7.813E-08 0.000E+00

     Forces acting on atoms (cartesian axes, Ry/au):

     atom    1 type  1   force =     0.00000074    0.00000074   -0.00005439
     atom    2 type  1   force =     0.00000039    0.00000039    0.00000003
     atom    3 type  1   force =     0.00000039    0.00000039    0.00000003
     atom    4 type  1   force =     0.00000068    0.00000068    0.00005262
     atom    5 type  1   force =    -0.00002249   -0.00002249   -0.00000073
     atom    6 type  1   force =     0.00000153   -0.00000085    0.00000054
     atom    7 type  1   force =    -0.00000085    0.00000153    0.00000054
     atom    8 type  1   force =     0.00002384    0.00002384   -0.00000078
     atom    9 type  1   force =     0.00000029    0.00000029   -0.00000103
     atom   10 type  1   force =     0.00000021    0.00000018   -0.00000022
     atom   11 type  1   force =     0.00000018    0.00000021   -0.00000022
     atom   12 type  1   force =     0.00000026    0.00000026    0.00000229
     atom   13 type  1   force =    -0.00000031   -0.00000031    0.00000040
     atom   14 type  1   force =     0.00000033    0.00000012   -0.00000079
     atom   15 type  1   force =     0.00000012    0.00000033   -0.00000079
     atom   16 type  1   force =     0.00000085    0.00000085    0.00000044
     atom   17 type  1   force =     0.00000011    0.00000011   -0.00000108
     atom   18 type  1   force =     0.00000001   -0.00000000   -0.00000064
     atom   19 type  1   force =    -0.00000000    0.00000001   -0.00000064
     atom   20 type  1   force =     0.00000012    0.00000012   -0.00000085
     atom   21 type  1   force =     0.00000004    0.00000004   -0.00000083
     atom   22 type  1   force =     0.00000002   -0.00000005   -0.00000043
     atom   23 type  1   force =    -0.00000005    0.00000002   -0.00000043
     atom   24 type  1   force =     0.00000008    0.00000008   -0.00000081
     atom   25 type  1   force =    -0.00000005   -0.00000005   -0.00000085
     atom   26 type  1   force =    -0.00000015   -0.00000017   -0.00000130
     atom   27 type  1   force =    -0.00000017   -0.00000015   -0.00000130
     atom   28 type  1   force =    -0.00000013   -0.00000013   -0.00000088
     atom   29 type  1   force =    -0.00000009   -0.00000009   -0.00000085
     atom   30 type  1   force =    -0.00000027   -0.00000020   -0.00000094
     atom   31 type  1   force =    -0.00000020   -0.00000027   -0.00000094
     atom   32 type  1   force =    -0.00000018   -0.00000018   -0.00000079
     atom   33 type  1   force =    -0.00000018   -0.00000018   -0.00000092
     atom   34 type  1   force =    -0.00000033   -0.00000014    0.00000006
     atom   35 type  1   force =    -0.00000014   -0.00000033    0.00000006
     atom   36 type  1   force =    -0.00000020   -0.00000020   -0.00000116
     atom   37 type  1   force =    -0.00000046   -0.00000046   -0.00000022
     atom   38 type  1   force =    -0.00000120    0.00000035    0.00000099
     atom   39 type  1   force =     0.00000035   -0.00000120    0.00000099
     atom   40 type  1   force =    -0.00000024   -0.00000024   -0.00000019
     atom   41 type  1   force =    -0.00000042   -0.00000042    0.00000067
     atom   42 type  1   force =    -0.00000118   -0.00000665    0.00000160
     atom   43 type  1   force =    -0.00000665   -0.00000118    0.00000160
     atom   44 type  1   force =     0.00000076    0.00000076    0.00000225
     atom   45 type  1   force =    -0.00000076   -0.00000076    0.00000445
     atom   46 type  1   force =     0.00000391    0.00000266    0.00000256
     atom   47 type  1   force =     0.00000266    0.00000391    0.00000256
     atom   48 type  1   force =    -0.00000115   -0.00000115    0.00000036

     Total force =     0.000090     Total SCF correction =     0.000135
     SCF correction compared to forces is large: reduce conv_thr to get better values

     Computing stress (Cartesian axis) and pressure

     negative rho (up, down):  7.813E-08 0.000E+00
          total   stress  (Ry/bohr**3)                   (kbar)     P=    2.15
   0.00002344   0.00003245   0.00000016          3.45      4.77      0.02
   0.00003245   0.00002344   0.00000016          4.77      3.45      0.02
   0.00000016   0.00000016  -0.00000301          0.02      0.02     -0.44

     Writing output data file Si.Fd-3m_6ML.save/

     General routines

     Parallel routines

   This run was terminated on:  17:52:15   4Sep2021

   JOB DONE.
Note: The following floating-point exceptions are signalling: IEEE_UNDERFLOW_FLAG IEEE_DENORMAL
Note: The following floating-point exceptions are signalling: IEEE_UNDERFLOW_FLAG IEEE_DENORMAL
Note: The following floating-point exceptions are signalling: IEEE_UNDERFLOW_FLAG IEEE_DENORMAL
Note: The following floating-point exceptions are signalling: IEEE_UNDERFLOW_FLAG IEEE_DENORMAL