     Program PWSCF v.6.4.1 starts on  4Sep2021 at  4:31:12

     K-points division:     npool     =      15
     R & G space division:  proc/nbgrp/npool/nimage =       4
     Reading input from Si.Fd-3m_5ML.scf.in

     Current dimensions of program PWSCF are:
     Max number of different atomic species (ntypx) = 10
     Max number of k-points (npk) =  40000
     Max angular momentum in pseudopotentials (lmaxx) =  3
               file Si.pbe-nl-kjpaw_psl.1.0.0.UPF: wavefunction(s)  3S 3P renormalized

     Subspace diagonalization in iterative solution of the eigenvalue problem:
     a serial algorithm will be used

     Message from routine setup:
     DEPRECATED: symmetry with ibrav=0, use correct ibrav instead

     Title:
     Relaxation of atomic positions for single monolayer slab of Si using PBE

     bravais-lattice index     =            0
     lattice parameter (alat)  =      10.2803  a.u.
     unit-cell volume          =    7170.7055 (a.u.)^3
     number of atoms/cell      =           40
     number of atomic types    =            1
     number of electrons       =       160.00
     number of Kohn-Sham states=          120
     kinetic-energy cutoff     =      45.0000  Ry
     charge density cutoff     =     175.0000  Ry
     convergence threshold     =      1.0E-08
     mixing beta               =       0.5000
     number of iterations used =            8  local-TF  mixing
     Exchange-correlation      = SLA PW PBX PBC ( 1  4  3  4 0 0)

     celldm(1)=  10.280305  celldm(2)=   0.000000  celldm(3)=   0.000000
     celldm(4)=   0.000000  celldm(5)=   0.000000  celldm(6)=   0.000000

     crystal axes: (cart. coord. in units of alat)
               a(1) = (   1.000000   0.000000   0.000000 )
               a(2) = (   0.000000   1.000000   0.000000 )
               a(3) = (   0.000000   0.000000   6.600000 )

     reciprocal axes: (cart. coord. in units 2 pi/alat)
               b(1) = (  1.000000  0.000000  0.000000 )
               b(2) = (  0.000000  1.000000  0.000000 )
               b(3) = (  0.000000  0.000000  0.151515 )

     PseudoPot. # 1 for Si read from file:
     /share/pseudo/Si.pbe-nl-kjpaw_psl.1.0.0.UPF
     MD5 check sum: 3686bff6734aab787fb18a3c8374d51f
     Pseudo is Projector augmented-wave + core cor, Zval =  4.0
     Generated using "atomic" code by A. Dal Corso v.6.3
     Shape of augmentation charge: PSQ
     Using radial grid of 1141 points,  4 beta functions with:
                l(1) =   0
                l(2) =   0
                l(3) =   1
                l(4) =   1
     Q(r) pseudized with 0 coefficients

     atomic species   valence    mass     pseudopotential
        Si             4.00    28.08600     Si( 1.00)

      2 Sym. Ops. (no inversion) found

   Cartesian axes

     site n.     atom                  positions (alat units)
         1           Si  tau(   1) = (   0.0021527   0.0021527   0.7741505  )
         2           Si  tau(   2) = (   0.0021041   0.5020996   1.3015186  )
         3           Si  tau(   3) = (   0.5020996   0.0021041   1.3015186  )
         4           Si  tau(   4) = (   0.5021573   0.5021573   0.8280753  )
         5           Si  tau(   5) = (   0.2404376   0.2404376   1.0495617  )
         6           Si  tau(   6) = (   0.2527284   0.7514652   1.5527318  )
         7           Si  tau(   7) = (   0.7514652   0.2527284   1.5527318  )
         8           Si  tau(   8) = (   0.7638769   0.7638769   1.0495678  )
         9           Si  tau(   9) = (   0.0020683   0.0020683   1.8043592  )
        10           Si  tau(  10) = (   0.0020182   0.5020120   2.3099582  )
        11           Si  tau(  11) = (   0.5020120   0.0020182   2.3099582  )
        12           Si  tau(  12) = (   0.5020655   0.5020655   1.8060790  )
        13           Si  tau(  13) = (   0.2517746   0.2517746   2.0575338  )
        14           Si  tau(  14) = (   0.2519304   0.7520720   2.5623520  )
        15           Si  tau(  15) = (   0.7520720   0.2519304   2.5623520  )
        16           Si  tau(  16) = (   0.7523433   0.7523433   2.0575395  )
        17           Si  tau(  17) = (   0.0019489   0.0019489   2.8149707  )
        18           Si  tau(  18) = (   0.0018869   0.5018819   3.3193337  )
        19           Si  tau(  19) = (   0.5018819   0.0018869   3.3193337  )
        20           Si  tau(  20) = (   0.5019477   0.5019477   2.8143124  )
        21           Si  tau(  21) = (   0.2522419   0.2522419   3.0670124  )
        22           Si  tau(  22) = (   0.2509945   0.7527425   3.5717297  )
        23           Si  tau(  23) = (   0.7527425   0.2509945   3.5717297  )
        24           Si  tau(  24) = (   0.7516265   0.7516265   3.0670176  )
        25           Si  tau(  25) = (   0.0018129   0.0018129   3.8266982  )
        26           Si  tau(  26) = (   0.0017632   0.5017608   4.3286667  )
        27           Si  tau(  27) = (   0.5017608   0.0017632   4.3286667  )
        28           Si  tau(  28) = (   0.5018101   0.5018101   3.8213731  )
        29           Si  tau(  29) = (   0.2539236   0.2539236   4.0763923  )
        30           Si  tau(  30) = (   0.2456261   0.7578733   4.5808378  )
        31           Si  tau(  31) = (   0.7578733   0.2456261   4.5808378  )
        32           Si  tau(  32) = (   0.7496719   0.7496719   4.0763919  )
        33           Si  tau(  33) = (   0.0016967   0.0016967   4.8516575  )
        34           Si  tau(  34) = (   0.0016310   0.5015999   5.3429072  )
        35           Si  tau(  35) = (   0.5015999   0.0016310   5.3429072  )
        36           Si  tau(  36) = (   0.5016963   0.5016963   4.8146851  )
        37           Si  tau(  37) = (   0.2652754   0.2652754   5.0871837  )
        38           Si  tau(  38) = (   0.1486869   0.8545257   5.5359277  )
        39           Si  tau(  39) = (   0.8545257   0.1486869   5.5359277  )
        40           Si  tau(  40) = (   0.7380954   0.7380954   5.0871994  )

     number of k points=    21  gaussian smearing, width (Ry)=  0.0100
                       cart. coord. in units 2pi/alat
        k(    1) = (   0.0000000   0.0000000   0.0000000), wk =   0.0312500
        k(    2) = (   0.0000000   0.1250000   0.0000000), wk =   0.1250000
        k(    3) = (   0.0000000   0.2500000   0.0000000), wk =   0.1250000
        k(    4) = (   0.0000000   0.3750000   0.0000000), wk =   0.1250000
        k(    5) = (   0.0000000  -0.5000000   0.0000000), wk =   0.0625000
        k(    6) = (   0.1250000   0.1250000   0.0000000), wk =   0.0625000
        k(    7) = (   0.1250000   0.2500000   0.0000000), wk =   0.1250000
        k(    8) = (   0.1250000   0.3750000   0.0000000), wk =   0.1250000
        k(    9) = (   0.1250000  -0.5000000   0.0000000), wk =   0.1250000
        k(   10) = (   0.2500000   0.2500000   0.0000000), wk =   0.0625000
        k(   11) = (   0.2500000   0.3750000   0.0000000), wk =   0.1250000
        k(   12) = (   0.2500000  -0.5000000   0.0000000), wk =   0.1250000
        k(   13) = (   0.3750000   0.3750000   0.0000000), wk =   0.0625000
        k(   14) = (   0.3750000  -0.5000000   0.0000000), wk =   0.1250000
        k(   15) = (  -0.5000000  -0.5000000   0.0000000), wk =   0.0312500
        k(   16) = (  -0.1250000   0.1250000   0.0000000), wk =   0.0625000
        k(   17) = (  -0.1250000   0.2500000   0.0000000), wk =   0.1250000
        k(   18) = (  -0.1250000   0.3750000   0.0000000), wk =   0.1250000
        k(   19) = (  -0.2500000   0.2500000   0.0000000), wk =   0.0625000
        k(   20) = (  -0.2500000   0.3750000   0.0000000), wk =   0.1250000
        k(   21) = (  -0.3750000   0.3750000   0.0000000), wk =   0.0625000

     Initial potential from superposition of free atoms

     starting charge  159.97763, renormalised to  160.00000

     negative rho (up, down):  7.341E-06 0.000E+00
     Starting wfcs are  160 randomized atomic wfcs
     Checking if some PAW data can be deallocated...

     Self-consistent Calculation

     iteration #  1     ecut=    45.00 Ry     beta= 0.50
     CG style diagonalization
     ethr =  1.00E-02,  avg # of iterations =  3.4

     Threshold (ethr) on eigenvalues was too large:
     Diagonalizing with lowered threshold

     CG style diagonalization
     ethr =  7.74E-04,  avg # of iterations =  2.2

     total energy              =   -1868.67291927 Ry
     Harris-Foulkes estimate   =   -1868.82799010 Ry
     estimated scf accuracy    <       1.25164448 Ry

[...]

     iteration #  4     ecut=    45.00 Ry     beta= 0.50
     CG style diagonalization
     c_bands:  2 eigenvalues not converged
     c_bands:  4 eigenvalues not converged
     ethr =  5.45E-05,  avg # of iterations =  4.4

[...]

     iteration #  6     ecut=    45.00 Ry     beta= 0.50
     CG style diagonalization
     c_bands:  1 eigenvalues not converged
     ethr =  1.05E-05,  avg # of iterations =  3.1

[...]

     negative rho (up, down):  4.623E-06 0.000E+00

[...]

     total energy              =   -1868.59406109 Ry
     Harris-Foulkes estimate   =   -1868.59406109 Ry
     estimated scf accuracy    <       0.00000001 Ry

     iteration # 19     ecut=    45.00 Ry     beta= 0.50
     CG style diagonalization
     ethr =  6.80E-12,  avg # of iterations =  3.1

[...]

     End of self-consistent calculation

          k = 0.0000 0.0000 0.0000 ( 36517 PWs)   bands (ev):

    -8.4095  -8.2947  -8.1133  -7.8459  -7.4943  -7.0616  -6.5538  -5.9803
    -5.3491  -4.6676  -4.3318  -4.3273  -4.3256  -4.3250  -4.3077  -4.2895
    -4.2655  -4.2615  -4.2520  -4.2500  -4.2127  -4.2038  -4.2005  -4.1925
    -4.1801  -4.1710  -4.1459  -3.9888  -3.9287  -3.1780  -3.1144  -3.0561
    -2.3985  -1.6166  -0.8389  -0.5621  -0.3095  -0.2929  -0.2920  -0.2596
    -0.1541  -0.0629  -0.0607  -0.0203   0.0263   0.2074   0.2224   0.2251
     0.3484   0.4419   0.4667   0.4807   0.6427   0.6921   0.6974   0.7617
     0.8091   0.8352   0.8379   1.0179   1.0295   1.2308   1.2846   1.4729
     1.5041   1.6043   1.8483   1.9874   2.1458   2.2449   2.4221   2.6630
     2.6737   2.7836   2.8453   2.8717   3.0630   3.1335   3.2154   3.3062
     3.3419   3.5727   4.1216   4.1308   4.2723   4.3106   4.3495   4.3498
     4.4139   4.4578   4.4961   4.5916   4.7881   4.8583   4.9026   4.9187
     5.1054   5.1647   5.1941   5.3799   5.4519   5.4796   5.5936   5.6764
     5.6869   5.9252   6.0040   6.0519   6.0997   6.1298   6.1747   6.2360
     6.5641   6.5642   6.5894   6.7797   6.7937   6.9705   6.9855   7.1183

[...]

          k = 0.3750-0.5000 0.0000 ( 36642 PWs)   bands (ev):

[...]

          k =-0.5000-0.5000 0.0000 ( 36504 PWs)   bands (ev):

[...]

          k =-0.3750 0.3750 0.0000 ( 36668 PWs)   bands (ev):

    -7.2334  -7.1369  -6.9856  -6.7677  -6.4975  -6.2793  -6.2633  -6.2419
    -6.2084  -6.1666  -6.1503  -6.0873  -6.0577  -6.0364  -5.9445  -5.8829
    -5.6477  -5.4603  -5.4208  -5.1086  -3.7710  -3.3334  -3.2974  -3.2691
    -3.2577  -3.1076  -3.0869  -3.0035  -2.9342  -2.7590  -2.6769  -2.5714
    -2.4034  -2.2895  -2.2631  -2.1828  -1.8568  -1.4426  -1.1005  -0.9209
    -0.5631  -0.0926  -0.0102   0.0159   0.2157   0.4339   0.5624   0.6295
     0.8488   0.8516   0.9037   1.0331   1.2151   1.3032   1.3340   1.3747
     1.5324   1.5340   1.5568   1.5940   1.6052   1.6655   1.6774   1.7073
     1.8080   1.8452   1.8549   1.9169   1.9746   2.0157   2.0306   2.1897
     2.3680   2.5326   2.6577   2.7581   2.7911   2.8011   3.1854   3.2237
     3.7016   4.1663   5.0906   5.1347   5.2674   5.3111   5.4187   5.4931
     5.6055   5.6271   5.6289   5.7130   5.7510   5.7796   5.9256   5.9541
     6.0484   6.1277   6.3144   6.3860   6.4582   6.5716   6.6912   6.7533
     6.8027   6.8304   6.8486   6.8774   6.9435   6.9619   7.0057   7.0131
     7.0137   7.0190   7.0671   7.0943   7.0955   7.1193   7.1587   7.1687

     the Fermi energy is     3.4178 ev

!    total energy              =   -1868.59406109 Ry
     Harris-Foulkes estimate   =   -1868.59406109 Ry
     estimated scf accuracy    <          5.7E-09 Ry

     total all-electron energy =    -23202.428660 Ry

     The total energy is the sum of the following terms:

     one-electron contribution =   -1822.14790793 Ry
     hartree contribution      =     974.37010421 Ry
     xc contribution           =    -196.07998997 Ry
     ewald contribution        =     647.97351996 Ry
     one-center paw contrib.   =   -1472.70447208 Ry
     smearing contrib. (-TS)   =      -0.00531529 Ry

     convergence has been achieved in  19 iterations

     negative rho (up, down):  2.387E-07 0.000E+00

     Forces acting on atoms (cartesian axes, Ry/au):

     atom    1 type  1   force =    -0.00000476   -0.00000476    0.00001170
     atom    2 type  1   force =    -0.00000373   -0.00000357    0.00000786
     atom    3 type  1   force =    -0.00000357   -0.00000373    0.00000786
     atom    4 type  1   force =    -0.00000500   -0.00000500   -0.00000535
     atom    5 type  1   force =    -0.00000569   -0.00000569    0.00000797
     atom    6 type  1   force =    -0.00000857    0.00000143   -0.00000012
     atom    7 type  1   force =     0.00000143   -0.00000857   -0.00000012
     atom    8 type  1   force =    -0.00000439   -0.00000439    0.00000722
     atom    9 type  1   force =    -0.00000293   -0.00000293    0.00000198
     atom   10 type  1   force =    -0.00000185   -0.00000156   -0.00000494
     atom   11 type  1   force =    -0.00000156   -0.00000185   -0.00000494
     atom   12 type  1   force =    -0.00000300   -0.00000300   -0.00001339
     atom   13 type  1   force =    -0.00000064   -0.00000064   -0.00000539
     atom   14 type  1   force =    -0.00000439    0.00000185   -0.00000271
     atom   15 type  1   force =     0.00000185   -0.00000439   -0.00000271
     atom   16 type  1   force =    -0.00000478   -0.00000478   -0.00000567
     atom   17 type  1   force =     0.00000031    0.00000031    0.00001308
     atom   18 type  1   force =     0.00000156    0.00000177    0.00001245
     atom   19 type  1   force =     0.00000177    0.00000156    0.00001245
     atom   20 type  1   force =     0.00000036    0.00000036   -0.00000151
     atom   21 type  1   force =     0.00000428    0.00000428    0.00001557
     atom   22 type  1   force =     0.00000229    0.00000151   -0.00000319
     atom   23 type  1   force =     0.00000151    0.00000229   -0.00000319
     atom   24 type  1   force =    -0.00000296   -0.00000296    0.00001541
     atom   25 type  1   force =     0.00000224    0.00000224   -0.00001723
     atom   26 type  1   force =     0.00000241    0.00000270   -0.00000057
     atom   27 type  1   force =     0.00000270    0.00000241   -0.00000057
     atom   28 type  1   force =     0.00000222    0.00000222   -0.00001367
     atom   29 type  1   force =     0.00000156    0.00000156   -0.00001302
     atom   30 type  1   force =     0.00000484    0.00000050    0.00000888
     atom   31 type  1   force =     0.00000050    0.00000484    0.00000888
     atom   32 type  1   force =     0.00000316    0.00000316   -0.00001315
     atom   33 type  1   force =     0.00000322    0.00000322    0.00000328
     atom   34 type  1   force =     0.00000260    0.00000234   -0.00000625
     atom   35 type  1   force =     0.00000234    0.00000260   -0.00000625
     atom   36 type  1   force =     0.00000326    0.00000326    0.00001364
     atom   37 type  1   force =     0.00000130    0.00000130    0.00000176
     atom   38 type  1   force =     0.00000403    0.00000081   -0.00001401
     atom   39 type  1   force =     0.00000081    0.00000403   -0.00001401
     atom   40 type  1   force =     0.00000527    0.00000527    0.00000199

     Total force =     0.000065     Total SCF correction =     0.000157
     SCF correction compared to forces is large: reduce conv_thr to get better values

     Computing stress (Cartesian axis) and pressure

     negative rho (up, down):  2.387E-07 0.000E+00
          total   stress  (Ry/bohr**3)                   (kbar)     P=    1.53
   0.00001708   0.00003774   0.00000035          2.51      5.55      0.05
   0.00003774   0.00001708   0.00000035          5.55      2.51      0.05
   0.00000035   0.00000035  -0.00000289          0.05      0.05     -0.43

     Writing output data file Si.Fd-3m_5ML.save/

     General routines

     Parallel routines

   This run was terminated on:   4:48:32   4Sep2021

   JOB DONE.
Note: The following floating-point exceptions are signalling:Note: The following floating-point exceptions are signalling: IEEE_UNDERFLOW_FLAG IEEE_DENORMAL
Note: The following floating-point exceptions are signalling: IEEE_UNDERFLOW_FLAG IEEE_DENORMAL
 IEEE_UNDERFLOW_FLAG IEEE_DENORMAL
Note: The following floating-point exceptions are signalling: IEEE_UNDERFLOW_FLAG IEEE_DENORMAL