     Program PWSCF v.6.4.1 starts on  3Sep2021 at 13:47:29

     K-points division:     npool     =      15
     R & G space division:  proc/nbgrp/npool/nimage =       4
     Reading input from Si.Fd-3m_2ML.scf.in

     Current dimensions of program PWSCF are:
     Max number of different atomic species (ntypx) = 10
     Max number of k-points (npk) =  40000
     Max angular momentum in pseudopotentials (lmaxx) =  3
               file Si.pbe-nl-kjpaw_psl.1.0.0.UPF: wavefunction(s)  3S 3P renormalized

     Subspace diagonalization in iterative solution of the eigenvalue problem:
     a serial algorithm will be used

     Title:
     Relaxation of atomic positions for single monolayer slab of Si using PBE

     bravais-lattice index     =            0
     lattice parameter (alat)  =      10.2270  a.u.
     unit-cell volume          =    3615.4593 (a.u.)^3
     number of atoms/cell      =           16
     number of atomic types    =            1
     number of electrons       =        64.00
     number of Kohn-Sham states=           48
     kinetic-energy cutoff     =      45.0000  Ry
     charge density cutoff     =     175.0000  Ry
     convergence threshold     =      1.0E-10
     mixing beta               =       0.5000
     number of iterations used =            8  local-TF  mixing
     Exchange-correlation      = SLA PW PBX PBC ( 1  4  3  4 0 0)

     celldm(1)=  10.227016  celldm(2)=   0.000000  celldm(3)=   0.000000
     celldm(4)=   0.000000  celldm(5)=   0.000000  celldm(6)=   0.000000

     crystal axes: (cart. coord. in units of alat)
               a(1) = (   1.000000   0.000000   0.000000 )
               a(2) = (   0.000000   1.000000   0.000000 )
               a(3) = (   0.000000   0.000000   3.380000 )

     reciprocal axes: (cart. coord. in units 2 pi/alat)
               b(1) = (  1.000000  0.000000  0.000000 )
               b(2) = (  0.000000  1.000000  0.000000 )
               b(3) = (  0.000000  0.000000  0.295858 )

     PseudoPot. # 1 for Si read from file:
     /share/pseudo/Si.pbe-nl-kjpaw_psl.1.0.0.UPF
     MD5 check sum: 3686bff6734aab787fb18a3c8374d51f
     Pseudo is Projector augmented-wave + core cor, Zval =  4.0
     Generated using "atomic" code by A. Dal Corso v.6.3
     Shape of augmentation charge: PSQ
     Using radial grid of 1141 points,  4 beta functions with:
                l(1) =   0
                l(2) =   0
                l(3) =   1
                l(4) =   1
     Q(r) pseudized with 0 coefficients

     atomic species   valence    mass     pseudopotential
        Si             4.00    28.08600     Si( 1.00)

     No symmetry found

   Cartesian axes

     site n.     atom                  positions (alat units)
         1           Si  tau(   1) = (  -0.0613912   0.0693939   1.0246604  )
         2           Si  tau(   2) = (   0.0289283   0.5072203   1.5488498  )
         3           Si  tau(   3) = (   0.5005196  -0.0211903   1.5488662  )
         4           Si  tau(   4) = (   0.6467872   0.3612573   1.1569006  )
         5           Si  tau(   5) = (   0.2524873   0.2351554   1.2887145  )
         6           Si  tau(   6) = (   0.2565979   0.7511301   1.8244862  )
         7           Si  tau(   7) = (   0.7697650   0.2379571   1.7853643  )
         8           Si  tau(   8) = (   0.7727809   0.7555421   1.2886796  )
         9           Si  tau(   9) = (   0.0064369   0.0012638   2.0777639  )
        10           Si  tau(  10) = (   0.0034715   0.4837110   2.5744159  )
        11           Si  tau(  11) = (   0.5237418   0.0040763   2.5744039  )
        12           Si  tau(  12) = (   0.5196019   0.4881020   2.0386038  )
        13           Si  tau(  13) = (   0.2757046   0.2604113   2.3142147  )
        14           Si  tau(  14) = (   0.1294171   0.8780267   2.7061626  )
        15           Si  tau(  15) = (   0.8376142   0.1698786   2.8384148  )
        16           Si  tau(  16) = (   0.7472742   0.7319921   2.3142418  )

     number of k points=    34  gaussian smearing, width (Ry)=  0.0100
                       cart. coord. in units 2pi/alat
        k(    1) = (   0.0000000   0.0000000   0.0000000), wk =   0.0312500
        k(    2) = (   0.0000000   0.1250000   0.0000000), wk =   0.0625000
        k(    3) = (   0.0000000   0.2500000   0.0000000), wk =   0.0625000
        k(    4) = (   0.0000000   0.3750000   0.0000000), wk =   0.0625000
        k(    5) = (   0.0000000  -0.5000000   0.0000000), wk =   0.0312500
        k(    6) = (   0.1250000   0.1250000   0.0000000), wk =   0.0625000
        k(    7) = (   0.1250000   0.2500000   0.0000000), wk =   0.0625000
        k(    8) = (   0.1250000   0.3750000   0.0000000), wk =   0.0625000
        k(    9) = (   0.1250000  -0.5000000   0.0000000), wk =   0.0625000
        k(   10) = (   0.2500000   0.2500000   0.0000000), wk =   0.0625000
        k(   11) = (   0.2500000   0.3750000   0.0000000), wk =   0.0625000
        k(   12) = (   0.2500000  -0.5000000   0.0000000), wk =   0.0625000
        k(   13) = (   0.3750000   0.3750000   0.0000000), wk =   0.0625000
        k(   14) = (   0.3750000  -0.5000000   0.0000000), wk =   0.0625000
        k(   15) = (  -0.5000000  -0.5000000   0.0000000), wk =   0.0312500
        k(   16) = (   0.1250000   0.0000000   0.0000000), wk =   0.0625000
        k(   17) = (   0.2500000   0.0000000   0.0000000), wk =   0.0625000
        k(   18) = (   0.3750000   0.0000000   0.0000000), wk =   0.0625000
        k(   19) = (  -0.5000000   0.0000000   0.0000000), wk =   0.0312500
        k(   20) = (  -0.1250000   0.1250000   0.0000000), wk =   0.0625000
        k(   21) = (  -0.1250000   0.2500000   0.0000000), wk =   0.0625000
        k(   22) = (   0.2500000   0.1250000   0.0000000), wk =   0.0625000
        k(   23) = (   0.2500000  -0.1250000   0.0000000), wk =   0.0625000
        k(   24) = (  -0.1250000   0.3750000   0.0000000), wk =   0.0625000
        k(   25) = (   0.3750000   0.1250000   0.0000000), wk =   0.0625000
        k(   26) = (   0.3750000  -0.1250000   0.0000000), wk =   0.0625000
        k(   27) = (  -0.5000000   0.1250000   0.0000000), wk =   0.0625000
        k(   28) = (  -0.2500000   0.2500000   0.0000000), wk =   0.0625000
        k(   29) = (  -0.2500000   0.3750000   0.0000000), wk =   0.0625000
        k(   30) = (   0.3750000   0.2500000   0.0000000), wk =   0.0625000
        k(   31) = (   0.3750000  -0.2500000   0.0000000), wk =   0.0625000
        k(   32) = (  -0.5000000   0.2500000   0.0000000), wk =   0.0625000
        k(   33) = (  -0.3750000   0.3750000   0.0000000), wk =   0.0625000
        k(   34) = (  -0.5000000   0.3750000   0.0000000), wk =   0.0625000

     Initial potential from superposition of free atoms

     starting charge   63.99105, renormalised to   64.00000

     negative rho (up, down):  2.547E-08 0.000E+00
     Starting wfcs are   64 randomized atomic wfcs
     Checking if some PAW data can be deallocated...

     Self-consistent Calculation

     iteration #  1     ecut=    45.00 Ry     beta= 0.50
     CG style diagonalization
     ethr =  1.00E-02,  avg # of iterations =  3.4

     Threshold (ethr) on eigenvalues was too large:
     Diagonalizing with lowered threshold

     CG style diagonalization
     ethr =  8.78E-04,  avg # of iterations =  2.2

     total energy              =    -747.31829264 Ry
     Harris-Foulkes estimate   =    -747.39332146 Ry
     estimated scf accuracy    <       0.57038790 Ry

[...]

     iteration #  4     ecut=    45.00 Ry     beta= 0.50
     CG style diagonalization
     c_bands:  1 eigenvalues not converged
     c_bands:  1 eigenvalues not converged
     ethr =  7.12E-05,  avg # of iterations =  4.6

[...]

     iteration #  9     ecut=    45.00 Ry     beta= 0.50
     CG style diagonalization
     c_bands:  1 eigenvalues not converged
     ethr =  3.09E-07,  avg # of iterations =  3.1

     negative rho (up, down):  6.977E-08 0.000E+00

[...]

     negative rho (up, down):  2.390E-08 0.000E+00

[...]

     total energy              =    -747.27423011 Ry
     Harris-Foulkes estimate   =    -747.27423011 Ry
     estimated scf accuracy    <          1.6E-10 Ry

     iteration # 17     ecut=    45.00 Ry     beta= 0.50
     CG style diagonalization
     ethr =  2.43E-13,  avg # of iterations =  3.2

     End of self-consistent calculation

          k = 0.0000 0.0000 0.0000 ( 18429 PWs)   bands (ev):

   -10.0278  -9.5675  -8.4392  -6.8748  -6.0400  -5.9986  -5.9022  -5.8826
    -5.7382  -5.6795  -5.2725  -4.5945  -4.4971  -3.4910  -2.2161  -2.1925
    -2.1691  -1.8752  -1.5284  -0.9090  -0.8492  -0.6584  -0.6502  -0.6245
    -0.1232  -0.0043   0.0445   0.4170   0.9220   0.9502   1.3991   1.4431
     1.5356   1.9001   2.6472   2.9417   3.3176   3.3187   3.3816   3.5670
     3.7793   4.1290   4.3181   4.7127   4.8215   4.9782   5.0753   5.5046

[...]

          k =-0.5000-0.5000 0.0000 ( 18448 PWs)   bands (ev):

[...]

          k = 0.3750-0.2500 0.0000 ( 18449 PWs)   bands (ev):

[...]

          k =-0.5000 0.3750 0.0000 ( 18448 PWs)   bands (ev):

    -8.5189  -8.4212  -8.1808  -7.9676  -7.6459  -7.2831  -7.2375  -6.9175
    -6.7520  -4.7145  -4.6405  -4.5139  -4.1569  -3.6425  -2.9168  -2.4987
    -1.9524  -1.2943  -1.0183  -0.8993  -0.4409  -0.2773  -0.2108   0.0756
     0.1972   0.2988   0.4068   0.5018   1.1775   1.2572   1.2819   1.4039
     2.7972   3.0857   3.6712   3.7428   3.9106   4.0164   4.1670   4.5225
     4.7098   4.8543   4.9798   5.1100   5.2032   5.2988   5.4021   5.4494

     the Fermi energy is     1.6166 ev

!    total energy              =    -747.27423011 Ry
     Harris-Foulkes estimate   =    -747.27423011 Ry
     estimated scf accuracy    <          2.0E-11 Ry

     total all-electron energy =     -9280.808070 Ry

     The total energy is the sum of the following terms:

     one-electron contribution =    -435.22428373 Ry
     hartree contribution      =     239.05501759 Ry
     xc contribution           =     -78.22719555 Ry
     ewald contribution        =     116.18333602 Ry
     one-center paw contrib.   =    -589.05995983 Ry
     smearing contrib. (-TS)   =      -0.00114460 Ry

     convergence has been achieved in  17 iterations

     Forces acting on atoms (cartesian axes, Ry/au):

     atom    1 type  1   force =    -0.00000652    0.00001281    0.00000674
     atom    2 type  1   force =    -0.00000470    0.00000265   -0.00000052
     atom    3 type  1   force =    -0.00000081    0.00000632   -0.00000036
     atom    4 type  1   force =     0.00000457    0.00000166    0.00000887
     atom    5 type  1   force =    -0.00000003    0.00001592    0.00000309
     atom    6 type  1   force =     0.00000512   -0.00000366   -0.00000354
     atom    7 type  1   force =    -0.00000588    0.00000691    0.00000469
     atom    8 type  1   force =    -0.00001086    0.00000639    0.00000207
     atom    9 type  1   force =     0.00000980   -0.00001064   -0.00000229
     atom   10 type  1   force =    -0.00000352   -0.00000874    0.00000170
     atom   11 type  1   force =     0.00000213   -0.00000147    0.00000045
     atom   12 type  1   force =    -0.00000559    0.00000433    0.00000073
     atom   13 type  1   force =     0.00000298   -0.00000269   -0.00000046
     atom   14 type  1   force =     0.00000034   -0.00000690   -0.00001584
     atom   15 type  1   force =     0.00001148   -0.00001796   -0.00000494
     atom   16 type  1   force =     0.00000150   -0.00000494   -0.00000040

     Total force =     0.000047     Total SCF correction =     0.000003

     Computing stress (Cartesian axis) and pressure

          total   stress  (Ry/bohr**3)                   (kbar)     P=   -2.05
  -0.00002045   0.00005091   0.00000031         -3.01      7.49      0.05
   0.00005091  -0.00002027  -0.00000003          7.49     -2.98     -0.00
   0.00000031  -0.00000003  -0.00000109          0.05     -0.00     -0.16

     Writing output data file Si.Fd-3m_2ML.save/

     General routines

     Parallel routines

   This run was terminated on:  13:51:28   3Sep2021

   JOB DONE.
Note: The following floating-point exceptions are signalling:Note: The following floating-point exceptions are signalling: IEEE_UNDERFLOW_FLAG IEEE_DENORMAL
Note: The following floating-point exceptions are signalling: IEEE_UNDERFLOW_FLAG IEEE_DENORMAL
 IEEE_UNDERFLOW_FLAG IEEE_DENORMAL
Note: The following floating-point exceptions are signalling: IEEE_UNDERFLOW_FLAG IEEE_DENORMAL