     Program PWSCF v.6.4.1 starts on  7Sep2021 at 17:36:47

     K-points division:     npool     =      15
     R & G space division:  proc/nbgrp/npool/nimage =       4
     Reading input from Si.I4_1amd_1ML.scf.in

     Current dimensions of program PWSCF are:
     Max number of different atomic species (ntypx) = 10
     Max number of k-points (npk) =  40000
     Max angular momentum in pseudopotentials (lmaxx) =  3
               file Si.pbe-nl-kjpaw_psl.1.0.0.UPF: wavefunction(s)  3S 3P renormalized

     Subspace diagonalization in iterative solution of the eigenvalue problem:
     a serial algorithm will be used

     Title:
     Relaxation of atomic positions for single monolayer slab of Si using PBE

     bravais-lattice index     =            0
     lattice parameter (alat)  =       9.0146  a.u.
     unit-cell volume          =    2563.9612 (a.u.)^3
     number of atoms/cell      =            8
     number of atomic types    =            1
     number of electrons       =        32.00
     number of Kohn-Sham states=           32
     kinetic-energy cutoff     =      45.0000  Ry
     charge density cutoff     =     175.0000  Ry
     convergence threshold     =      1.0E-08
     mixing beta               =       0.5000
     number of iterations used =            8  local-TF  mixing
     Exchange-correlation      = SLA PW PBX PBC ( 1  4  3  4 0 0)

     celldm(1)=   9.014628  celldm(2)=   0.000000  celldm(3)=   0.000000
     celldm(4)=   0.000000  celldm(5)=   0.000000  celldm(6)=   0.000000

     crystal axes: (cart. coord. in units of alat)
               a(1) = (   1.000000   0.000000   0.000000 )
               a(2) = (   0.000000   1.000000   0.000000 )
               a(3) = (   0.000000   0.000000   3.500000 )

     reciprocal axes: (cart. coord. in units 2 pi/alat)
               b(1) = (  1.000000  0.000000  0.000000 )
               b(2) = (  0.000000  1.000000  0.000000 )
               b(3) = (  0.000000  0.000000  0.285714 )

     PseudoPot. # 1 for Si read from file:
     /share/pseudo/Si.pbe-nl-kjpaw_psl.1.0.0.UPF
     MD5 check sum: 3686bff6734aab787fb18a3c8374d51f
     Pseudo is Projector augmented-wave + core cor, Zval =  4.0
     Generated using "atomic" code by A. Dal Corso v.6.3
     Shape of augmentation charge: PSQ
     Using radial grid of 1141 points,  4 beta functions with:
                l(1) =   0
                l(2) =   0
                l(3) =   1
                l(4) =   1
     Q(r) pseudized with 0 coefficients

     atomic species   valence    mass     pseudopotential
        Si             4.00    28.08600     Si( 1.00)

     No symmetry found

   Cartesian axes

     site n.     atom                  positions (alat units)
         1           Si  tau(   1) = (   0.0015570   0.0012627   1.4257892  )
         2           Si  tau(   2) = (   0.5013751   0.5012425   1.4262191  )
         3           Si  tau(   3) = (   0.0013861   0.5012663   1.2706672  )
         4           Si  tau(   4) = (   0.5015519   0.0012804   1.5979250  )
         5           Si  tau(   5) = (   0.0007085   0.0012952   1.9516755  )
         6           Si  tau(   6) = (   0.5013567   0.5012850   1.9518996  )
         7           Si  tau(   7) = (   0.0013882   0.5012392   1.7798804  )
         8           Si  tau(   8) = (   0.5008133   0.0012655   2.1071142  )

     number of k points=   113  gaussian smearing, width (Ry)=  0.0100

     Number of k-points >= 100: set verbosity='high' to print them.

     Initial potential from superposition of free atoms

     starting charge   31.99553, renormalised to   32.00000

     negative rho (up, down):  7.248E-05 0.000E+00
     Starting wfcs are   32 randomized atomic wfcs
     Checking if some PAW data can be deallocated...

     Self-consistent Calculation

     iteration #  1     ecut=    45.00 Ry     beta= 0.50
     CG style diagonalization
     ethr =  1.00E-02,  avg # of iterations =  3.9

     Threshold (ethr) on eigenvalues was too large:
     Diagonalizing with lowered threshold

     CG style diagonalization
     ethr =  7.78E-04,  avg # of iterations =  2.7

     total energy              =    -373.56852484 Ry
     Harris-Foulkes estimate   =    -373.60059978 Ry
     estimated scf accuracy    <       0.26901061 Ry

[...]

     iteration #  4     ecut=    45.00 Ry     beta= 0.50
     CG style diagonalization
     c_bands:  1 eigenvalues not converged
     ethr =  8.84E-05,  avg # of iterations =  4.1

[...]

     negative rho (up, down):  3.491E-03 0.000E+00

[...]

     iteration # 11     ecut=    45.00 Ry     beta= 0.50
     CG style diagonalization
     c_bands:  1 eigenvalues not converged
     ethr =  3.44E-08,  avg # of iterations =  4.0

[...]

     total energy              =    -373.54084782 Ry
     Harris-Foulkes estimate   =    -373.54084783 Ry
     estimated scf accuracy    <       0.00000001 Ry

     iteration # 14     ecut=    45.00 Ry     beta= 0.50
     CG style diagonalization
     ethr =  3.24E-11,  avg # of iterations =  3.1

[...]

     End of self-consistent calculation

     Number of k-points >= 100: set verbosity='high' to print the bands.

     the Fermi energy is     0.1668 ev

!    total energy              =    -373.54084782 Ry
     Harris-Foulkes estimate   =    -373.54084783 Ry
     estimated scf accuracy    <          5.8E-09 Ry

     total all-electron energy =     -4640.307768 Ry

     The total energy is the sum of the following terms:

     one-electron contribution =    -371.13834489 Ry
     hartree contribution      =     194.06595881 Ry
     xc contribution           =     -39.25514468 Ry
     ewald contribution        =     137.26958354 Ry
     one-center paw contrib.   =    -294.48110352 Ry
     smearing contrib. (-TS)   =      -0.00179707 Ry

     convergence has been achieved in  14 iterations

     negative rho (up, down):  2.688E-05 0.000E+00

     Forces acting on atoms (cartesian axes, Ry/au):

     atom    1 type  1   force =    -0.00007633   -0.00000198    0.00018856
     atom    2 type  1   force =     0.00009283    0.00003561   -0.00012341
     atom    3 type  1   force =    -0.00004372   -0.00000584    0.00006259
     atom    4 type  1   force =    -0.00012267   -0.00003885   -0.00010755
     atom    5 type  1   force =     0.00015733   -0.00004950    0.00001616
     atom    6 type  1   force =    -0.00009443   -0.00001652   -0.00002299
     atom    7 type  1   force =    -0.00004194    0.00005491   -0.00001489
     atom    8 type  1   force =     0.00012894    0.00002218    0.00000152

     Total force =     0.000400     Total SCF correction =     0.000092
     SCF correction compared to forces is large: reduce conv_thr to get better values

     Computing stress (Cartesian axis) and pressure

     negative rho (up, down):  2.688E-05 0.000E+00
          total   stress  (Ry/bohr**3)                   (kbar)     P=   -0.23
  -0.00000229  -0.00000000   0.00000032         -0.34     -0.00      0.05
  -0.00000000  -0.00000144  -0.00000003         -0.00     -0.21     -0.00
   0.00000032  -0.00000003  -0.00000091          0.05     -0.00     -0.13

     Writing output data file Si.I4_1amd_1ML.save/

     General routines

     Parallel routines

   This run was terminated on:  17:39:51   7Sep2021

   JOB DONE.
Note: The following floating-point exceptions are signalling: IEEE_UNDERFLOW_FLAG IEEE_DENORMAL
Note: The following floating-point exceptions are signalling: IEEE_UNDERFLOW_FLAG IEEE_DENORMAL
Note: The following floating-point exceptions are signalling: IEEE_UNDERFLOW_FLAG IEEE_DENORMAL
Note: The following floating-point exceptions are signalling: IEEE_UNDERFLOW_FLAG IEEE_DENORMAL