     Program PWSCF v.6.4.1 starts on  7Sep2021 at 18:58: 4

     K-points division:     npool     =      15
     R & G space division:  proc/nbgrp/npool/nimage =       4
     Reading input from Si.I4_1amd_2ML.scf.in

     Current dimensions of program PWSCF are:
     Max number of different atomic species (ntypx) = 10
     Max number of k-points (npk) =  40000
     Max angular momentum in pseudopotentials (lmaxx) =  3
               file Si.pbe-nl-kjpaw_psl.1.0.0.UPF: wavefunction(s)  3S 3P renormalized

     Subspace diagonalization in iterative solution of the eigenvalue problem:
     a serial algorithm will be used

     Title:
     Relaxation of atomic positions for single monolayer slab of Si using PBE

     bravais-lattice index     =            0
     lattice parameter (alat)  =       9.1052  a.u.
     unit-cell volume          =    3947.9718 (a.u.)^3
     number of atoms/cell      =           16
     number of atomic types    =            1
     number of electrons       =        64.00
     number of Kohn-Sham states=           80
     kinetic-energy cutoff     =      45.0000  Ry
     charge density cutoff     =     175.0000  Ry
     convergence threshold     =      1.0E-08
     mixing beta               =       0.5000
     number of iterations used =            8  local-TF  mixing
     Exchange-correlation      = SLA PW PBX PBC ( 1  4  3  4 0 0)

     celldm(1)=   9.105227  celldm(2)=   0.000000  celldm(3)=   0.000000
     celldm(4)=   0.000000  celldm(5)=   0.000000  celldm(6)=   0.000000

     crystal axes: (cart. coord. in units of alat)
               a(1) = (   1.000000   0.000000   0.000000 )
               a(2) = (   0.000000   1.000000   0.000000 )
               a(3) = (   0.000000   0.000000   5.230000 )

     reciprocal axes: (cart. coord. in units 2 pi/alat)
               b(1) = (  1.000000  0.000000  0.000000 )
               b(2) = (  0.000000  1.000000  0.000000 )
               b(3) = (  0.000000  0.000000  0.191205 )

     PseudoPot. # 1 for Si read from file:
     /share/pseudo/Si.pbe-nl-kjpaw_psl.1.0.0.UPF
     MD5 check sum: 3686bff6734aab787fb18a3c8374d51f
     Pseudo is Projector augmented-wave + core cor, Zval =  4.0
     Generated using "atomic" code by A. Dal Corso v.6.3
     Shape of augmentation charge: PSQ
     Using radial grid of 1141 points,  4 beta functions with:
                l(1) =   0
                l(2) =   0
                l(3) =   1
                l(4) =   1
     Q(r) pseudized with 0 coefficients

     atomic species   valence    mass     pseudopotential
        Si             4.00    28.08600     Si( 1.00)

     No symmetry found

   Cartesian axes

     site n.     atom                  positions (alat units)
         1           Si  tau(   1) = (  -0.0012383  -0.0012415   1.5543175  )
         2           Si  tau(   2) = (   0.4987484   0.4987489   1.8304015  )
         3           Si  tau(   3) = (  -0.0012267   0.4987424   1.6752917  )
         4           Si  tau(   4) = (   0.4987546  -0.0012433   1.7209955  )
         5           Si  tau(   5) = (  -0.0012183  -0.0012227   2.0605872  )
         6           Si  tau(   6) = (   0.4987675   0.4987500   2.3517061  )
         7           Si  tau(   7) = (  -0.0012137   0.4987833   2.1934562  )
         8           Si  tau(   8) = (   0.4987545  -0.0011839   2.2409480  )
         9           Si  tau(   9) = (  -0.0012046  -0.0011834   2.8225871  )
        10           Si  tau(  10) = (   0.4987622   0.4987833   2.8700792  )
        11           Si  tau(  11) = (  -0.0012182   0.4987515   2.7118182  )
        12           Si  tau(  12) = (   0.4987656  -0.0012228   3.0029074  )
        13           Si  tau(  13) = (  -0.0012236  -0.0012433   3.3425028  )
        14           Si  tau(  14) = (   0.4987335   0.4987438   3.3882185  )
        15           Si  tau(  15) = (  -0.0012395   0.4987492   3.2331664  )
        16           Si  tau(  16) = (   0.4987676  -0.0012404   3.5091708  )

     number of k points=   113  gaussian smearing, width (Ry)=  0.0100

     Number of k-points >= 100: set verbosity='high' to print them.

     Initial potential from superposition of free atoms

     starting charge   63.99105, renormalised to   64.00000

     negative rho (up, down):  1.649E-04 0.000E+00
     Starting wfcs are   64 randomized atomic wfcs +   16 random wfcs
     Checking if some PAW data can be deallocated...

     Self-consistent Calculation

     iteration #  1     ecut=    45.00 Ry     beta= 0.50
     CG style diagonalization
     ethr =  1.00E-02,  avg # of iterations =  5.5

     Threshold (ethr) on eigenvalues was too large:
     Diagonalizing with lowered threshold

     CG style diagonalization
     c_bands:  1 eigenvalues not converged
     c_bands:  1 eigenvalues not converged
     ethr =  5.51E-04,  avg # of iterations =  4.1

     total energy              =    -747.16516615 Ry
     Harris-Foulkes estimate   =    -747.20498903 Ry
     estimated scf accuracy    <       0.38836610 Ry

[...]

     iteration #  4     ecut=    45.00 Ry     beta= 0.50
     CG style diagonalization
     c_bands:  2 eigenvalues not converged
     c_bands:  1 eigenvalues not converged
     c_bands:  1 eigenvalues not converged
     ethr =  3.92E-05,  avg # of iterations =  4.3

[...]

     negative rho (up, down):  4.169E-03 0.000E+00

[...]

     iteration # 12     ecut=    45.00 Ry     beta= 0.50
     CG style diagonalization
     c_bands:  1 eigenvalues not converged
     c_bands:  1 eigenvalues not converged
     ethr =  7.02E-09,  avg # of iterations =  3.5

[...]

     total energy              =    -747.13419695 Ry
     Harris-Foulkes estimate   =    -747.13419695 Ry
     estimated scf accuracy    <       0.00000005 Ry

     iteration # 14     ecut=    45.00 Ry     beta= 0.50
     CG style diagonalization
     ethr =  8.03E-11,  avg # of iterations =  3.1

[...]

     End of self-consistent calculation

     Number of k-points >= 100: set verbosity='high' to print the bands.

     the Fermi energy is     1.4933 ev

!    total energy              =    -747.13419695 Ry
     Harris-Foulkes estimate   =    -747.13419696 Ry
     estimated scf accuracy    <          6.7E-09 Ry

     total all-electron energy =     -9280.668037 Ry

     The total energy is the sum of the following terms:

     one-electron contribution =   -1527.46501889 Ry
     hartree contribution      =     783.78124111 Ry
     xc contribution           =     -78.72783953 Ry
     ewald contribution        =     664.23593906 Ry
     one-center paw contrib.   =    -588.95506402 Ry
     smearing contrib. (-TS)   =      -0.00345468 Ry

     convergence has been achieved in  14 iterations

     negative rho (up, down):  6.334E-05 0.000E+00

     Forces acting on atoms (cartesian axes, Ry/au):

     atom    1 type  1   force =    -0.00000694   -0.00001815   -0.00005589
     atom    2 type  1   force =     0.00001872    0.00000963    0.00019044
     atom    3 type  1   force =    -0.00002382    0.00001595    0.00015098
     atom    4 type  1   force =     0.00000801   -0.00000949    0.00017716
     atom    5 type  1   force =    -0.00002021    0.00000100   -0.00006750
     atom    6 type  1   force =     0.00001784    0.00008932    0.00010591
     atom    7 type  1   force =    -0.00001579    0.00000185    0.00003374
     atom    8 type  1   force =     0.00002138   -0.00008961    0.00011539
     atom    9 type  1   force =    -0.00001886   -0.00008787   -0.00011370
     atom   10 type  1   force =     0.00001820    0.00000167   -0.00003214
     atom   11 type  1   force =    -0.00001559    0.00008767   -0.00010574
     atom   12 type  1   force =     0.00002200    0.00000128    0.00006770
     atom   13 type  1   force =    -0.00000962   -0.00000921   -0.00017634
     atom   14 type  1   force =     0.00002022    0.00001526   -0.00014785
     atom   15 type  1   force =    -0.00002155    0.00000818   -0.00019553
     atom   16 type  1   force =     0.00000600   -0.00001748    0.00005339

     Total force =     0.000534     Total SCF correction =     0.000124
     SCF correction compared to forces is large: reduce conv_thr to get better values

     Computing stress (Cartesian axis) and pressure

     negative rho (up, down):  6.334E-05 0.000E+00
          total   stress  (Ry/bohr**3)                   (kbar)     P=    1.23
  -0.00000015  -0.00000000   0.00000005         -0.02     -0.00      0.01
  -0.00000000   0.00002808   0.00000000         -0.00      4.13      0.00
   0.00000005   0.00000000  -0.00000288          0.01      0.00     -0.42

     Writing output data file Si.I4_1amd_2ML.save/

     General routines

     Parallel routines

   This run was terminated on:  19:13:19   7Sep2021

   JOB DONE.
Note: The following floating-point exceptions are signalling: IEEE_UNDERFLOW_FLAG IEEE_DENORMAL
Note: The following floating-point exceptions are signalling: IEEE_UNDERFLOW_FLAG IEEE_DENORMAL
Note: The following floating-point exceptions are signalling: IEEE_UNDERFLOW_FLAG IEEE_DENORMAL
Note: The following floating-point exceptions are signalling: IEEE_UNDERFLOW_FLAG IEEE_DENORMAL