     Program PWSCF v.6.4.1 starts on  8Sep2021 at  2:25:26

     K-points division:     npool     =      15
     R & G space division:  proc/nbgrp/npool/nimage =       4
     Reading input from Si.I4_1amd_3ML.scf.in

     Current dimensions of program PWSCF are:
     Max number of different atomic species (ntypx) = 10
     Max number of k-points (npk) =  40000
     Max angular momentum in pseudopotentials (lmaxx) =  3
               file Si.pbe-nl-kjpaw_psl.1.0.0.UPF: wavefunction(s)  3S 3P renormalized

     Subspace diagonalization in iterative solution of the eigenvalue problem:
     a serial algorithm will be used

     Title:
     Relaxation of atomic positions for single monolayer slab of Si using PBE

     bravais-lattice index     =            0
     lattice parameter (alat)  =       9.0599  a.u.
     unit-cell volume          =    4714.8017 (a.u.)^3
     number of atoms/cell      =           24
     number of atomic types    =            1
     number of electrons       =        96.00
     number of Kohn-Sham states=           72
     kinetic-energy cutoff     =      45.0000  Ry
     charge density cutoff     =     175.0000  Ry
     convergence threshold     =      1.0E-08
     mixing beta               =       0.5000
     number of iterations used =            8  local-TF  mixing
     Exchange-correlation      = SLA PW PBX PBC ( 1  4  3  4 0 0)

     celldm(1)=   9.059928  celldm(2)=   0.000000  celldm(3)=   0.000000
     celldm(4)=   0.000000  celldm(5)=   0.000000  celldm(6)=   0.000000

     crystal axes: (cart. coord. in units of alat)
               a(1) = (   1.000000   0.000000   0.000000 )
               a(2) = (   0.000000   1.000000   0.000000 )
               a(3) = (   0.000000   0.000000   6.340000 )

     reciprocal axes: (cart. coord. in units 2 pi/alat)
               b(1) = (  1.000000  0.000000  0.000000 )
               b(2) = (  0.000000  1.000000  0.000000 )
               b(3) = (  0.000000  0.000000  0.157729 )

     PseudoPot. # 1 for Si read from file:
     /share/pseudo/Si.pbe-nl-kjpaw_psl.1.0.0.UPF
     MD5 check sum: 3686bff6734aab787fb18a3c8374d51f
     Pseudo is Projector augmented-wave + core cor, Zval =  4.0
     Generated using "atomic" code by A. Dal Corso v.6.3
     Shape of augmentation charge: PSQ
     Using radial grid of 1141 points,  4 beta functions with:
                l(1) =   0
                l(2) =   0
                l(3) =   1
                l(4) =   1
     Q(r) pseudized with 0 coefficients

     atomic species   valence    mass     pseudopotential
        Si             4.00    28.08600     Si( 1.00)

     No symmetry found

   Cartesian axes

     site n.     atom                  positions (alat units)
         1           Si  tau(   1) = (  -0.1683048   0.0000035   1.5587421  )
         2           Si  tau(   2) = (   0.4645445   0.5000141   1.8028482  )
         3           Si  tau(   3) = (  -0.0275842   0.4999956   1.6530484  )
         4           Si  tau(   4) = (   0.4749251   0.0000327   1.9189233  )
         5           Si  tau(   5) = (  -0.0158299  -0.0000089   2.0513061  )
         6           Si  tau(   6) = (   0.4914202   0.5000153   2.3317213  )
         7           Si  tau(   7) = (  -0.0090516   0.4999782   2.1864991  )
         8           Si  tau(   8) = (   0.5037643   0.0000251   2.4655294  )
         9           Si  tau(   9) = (  -0.0011153   0.0000332   2.6319082  )
        10           Si  tau(  10) = (   0.4936920   0.5000074   2.9015222  )
        11           Si  tau(  11) = (  -0.0036873   0.5000055   2.7538139  )
        12           Si  tau(  12) = (   0.4999890   0.0000206   3.0329468  )
        13           Si  tau(  13) = (   0.0000175   0.0000202   3.1699616  )
        14           Si  tau(  14) = (   0.5036870   0.5000059   3.4491684  )
        15           Si  tau(  15) = (   0.0063092   0.5000074   3.3013942  )
        16           Si  tau(  16) = (   0.5011623   0.0000333   3.5708531  )
        17           Si  tau(  17) = (  -0.0037461   0.0000256   3.7374554  )
        18           Si  tau(  18) = (   0.5090368   0.4999799   4.0161765  )
        19           Si  tau(  19) = (   0.0085764   0.5000159   3.8711979  )
        20           Si  tau(  20) = (   0.5159552  -0.0000064   4.1512069  )
        21           Si  tau(  21) = (   0.0252209   0.0000338   4.2840632  )
        22           Si  tau(  22) = (   0.5276255   0.4999976   4.5497431  )
        23           Si  tau(  23) = (   0.0355123   0.5000154   4.3999242  )
        24           Si  tau(  24) = (   0.6681395   0.0000075   4.6438178  )

     number of k points=   113  gaussian smearing, width (Ry)=  0.0100

     Number of k-points >= 100: set verbosity='high' to print them.

     Initial potential from superposition of free atoms

     starting charge   95.98658, renormalised to   96.00000

     negative rho (up, down):  1.706E-04 0.000E+00
     Starting wfcs are   96 randomized atomic wfcs
     Checking if some PAW data can be deallocated...

     Self-consistent Calculation

     iteration #  1     ecut=    45.00 Ry     beta= 0.50
     CG style diagonalization
     ethr =  1.00E-02,  avg # of iterations =  3.3

     Threshold (ethr) on eigenvalues was too large:
     Diagonalizing with lowered threshold

     CG style diagonalization
     ethr =  7.57E-04,  avg # of iterations =  2.6

     total energy              =   -1120.79080773 Ry
     Harris-Foulkes estimate   =   -1120.83576503 Ry
     estimated scf accuracy    <       0.83194900 Ry

[...]

     iteration #  4     ecut=    45.00 Ry     beta= 0.50
     CG style diagonalization
     c_bands:  1 eigenvalues not converged
     c_bands:  1 eigenvalues not converged
     c_bands:  2 eigenvalues not converged
     c_bands:  2 eigenvalues not converged
     c_bands:  1 eigenvalues not converged
     c_bands:  4 eigenvalues not converged
     c_bands:  1 eigenvalues not converged
     ethr =  5.67E-05,  avg # of iterations =  4.5

[...]

     negative rho (up, down):  2.175E-05 0.000E+00

[...]

     iteration # 11     ecut=    45.00 Ry     beta= 0.50
     CG style diagonalization
     c_bands:  1 eigenvalues not converged
     ethr =  3.06E-07,  avg # of iterations =  3.3

[...]

     total energy              =   -1120.76830594 Ry
     Harris-Foulkes estimate   =   -1120.76830594 Ry
     estimated scf accuracy    <       0.00000001 Ry

     iteration # 18     ecut=    45.00 Ry     beta= 0.50
     CG style diagonalization
     ethr =  1.16E-11,  avg # of iterations =  3.5

[...]

     End of self-consistent calculation

     Number of k-points >= 100: set verbosity='high' to print the bands.

     the Fermi energy is     2.9764 ev

!    total energy              =   -1120.76830594 Ry
     Harris-Foulkes estimate   =   -1120.76830594 Ry
     estimated scf accuracy    <          7.7E-09 Ry

     total all-electron energy =    -13921.069065 Ry

     The total energy is the sum of the following terms:

     one-electron contribution =   -2953.22598407 Ry
     hartree contribution      =    1511.92243400 Ry
     xc contribution           =    -118.33142151 Ry
     ewald contribution        =    1322.28669985 Ry
     one-center paw contrib.   =    -883.41453181 Ry
     smearing contrib. (-TS)   =      -0.00550239 Ry

     convergence has been achieved in  18 iterations

     negative rho (up, down):  6.362E-05 0.000E+00

     Forces acting on atoms (cartesian axes, Ry/au):

     atom    1 type  1   force =     0.00005650   -0.00000807    0.00001122
     atom    2 type  1   force =    -0.00001696    0.00001738    0.00006573
     atom    3 type  1   force =    -0.00008091    0.00001081   -0.00001077
     atom    4 type  1   force =     0.00004243   -0.00002733    0.00006223
     atom    5 type  1   force =    -0.00006317   -0.00001272   -0.00003859
     atom    6 type  1   force =    -0.00002439    0.00001106   -0.00003229
     atom    7 type  1   force =    -0.00006858    0.00003053   -0.00001727
     atom    8 type  1   force =     0.00004526   -0.00001721   -0.00007021
     atom    9 type  1   force =     0.00002024   -0.00004186   -0.00001453
     atom   10 type  1   force =     0.00011320    0.00001824   -0.00001675
     atom   11 type  1   force =     0.00007124    0.00003616   -0.00015364
     atom   12 type  1   force =    -0.00001465   -0.00001687   -0.00000175
     atom   13 type  1   force =     0.00001804   -0.00001627   -0.00001552
     atom   14 type  1   force =    -0.00006759    0.00003580    0.00016205
     atom   15 type  1   force =    -0.00011184    0.00001787    0.00003318
     atom   16 type  1   force =    -0.00002658   -0.00004140   -0.00001094
     atom   17 type  1   force =    -0.00004859   -0.00001708    0.00004888
     atom   18 type  1   force =     0.00007203    0.00003080    0.00001739
     atom   19 type  1   force =     0.00002623    0.00001112    0.00004078
     atom   20 type  1   force =     0.00005217   -0.00001334    0.00004784
     atom   21 type  1   force =    -0.00004606   -0.00002746   -0.00006621
     atom   22 type  1   force =     0.00007984    0.00001242    0.00000798
     atom   23 type  1   force =     0.00001347    0.00001764   -0.00005436
     atom   24 type  1   force =    -0.00004133   -0.00001022    0.00000553

     Total force =     0.000420     Total SCF correction =     0.000182
     SCF correction compared to forces is large: reduce conv_thr to get better values

     Computing stress (Cartesian axis) and pressure

     negative rho (up, down):  6.362E-05 0.000E+00
          total   stress  (Ry/bohr**3)                   (kbar)     P=    0.30
  -0.00000794  -0.00000000   0.00000004         -1.17     -0.00      0.01
  -0.00000000   0.00001565  -0.00000000         -0.00      2.30     -0.00
   0.00000004  -0.00000000  -0.00000154          0.01     -0.00     -0.23

     Writing output data file Si.I4_1amd_3ML.save/

     General routines

     Parallel routines

   This run was terminated on:   2:47:19   8Sep2021

   JOB DONE.
Note: The following floating-point exceptions are signalling:Note: The following floating-point exceptions are signalling: IEEE_UNDERFLOW_FLAG IEEE_DENORMAL
Note: The following floating-point exceptions are signalling: IEEE_UNDERFLOW_FLAG IEEE_DENORMAL
 IEEE_UNDERFLOW_FLAG IEEE_DENORMAL
Note: The following floating-point exceptions are signalling: IEEE_UNDERFLOW_FLAG IEEE_DENORMAL