     Program PWSCF v.6.4.1 starts on  8Sep2021 at 11:33: 9

     K-points division:     npool     =      15
     R & G space division:  proc/nbgrp/npool/nimage =       4
     Reading input from Si.I4_1amd_4ML.scf.in

     Current dimensions of program PWSCF are:
     Max number of different atomic species (ntypx) = 10
     Max number of k-points (npk) =  40000
     Max angular momentum in pseudopotentials (lmaxx) =  3
               file Si.pbe-nl-kjpaw_psl.1.0.0.UPF: wavefunction(s)  3S 3P renormalized

     Subspace diagonalization in iterative solution of the eigenvalue problem:
     a serial algorithm will be used

     Title:
     Relaxation of atomic positions for single monolayer slab of Si using PBE

     bravais-lattice index     =            0
     lattice parameter (alat)  =       9.0599  a.u.
     unit-cell volume          =    5547.7004 (a.u.)^3
     number of atoms/cell      =           32
     number of atomic types    =            1
     number of electrons       =       128.00
     number of Kohn-Sham states=           96
     kinetic-energy cutoff     =      45.0000  Ry
     charge density cutoff     =     175.0000  Ry
     convergence threshold     =      1.0E-08
     mixing beta               =       0.5000
     number of iterations used =            8  local-TF  mixing
     Exchange-correlation      = SLA PW PBX PBC ( 1  4  3  4 0 0)

     celldm(1)=   9.059928  celldm(2)=   0.000000  celldm(3)=   0.000000
     celldm(4)=   0.000000  celldm(5)=   0.000000  celldm(6)=   0.000000

     crystal axes: (cart. coord. in units of alat)
               a(1) = (   1.000000   0.000000   0.000000 )
               a(2) = (   0.000000   1.000000   0.000000 )
               a(3) = (   0.000000   0.000000   7.460000 )

     reciprocal axes: (cart. coord. in units 2 pi/alat)
               b(1) = (  1.000000  0.000000  0.000000 )
               b(2) = (  0.000000  1.000000  0.000000 )
               b(3) = (  0.000000  0.000000  0.134048 )

     PseudoPot. # 1 for Si read from file:
     /share/pseudo/Si.pbe-nl-kjpaw_psl.1.0.0.UPF
     MD5 check sum: 3686bff6734aab787fb18a3c8374d51f
     Pseudo is Projector augmented-wave + core cor, Zval =  4.0
     Generated using "atomic" code by A. Dal Corso v.6.3
     Shape of augmentation charge: PSQ
     Using radial grid of 1141 points,  4 beta functions with:
                l(1) =   0
                l(2) =   0
                l(3) =   1
                l(4) =   1
     Q(r) pseudized with 0 coefficients

     atomic species   valence    mass     pseudopotential
        Si             4.00    28.08600     Si( 1.00)

     No symmetry found

   Cartesian axes

     site n.     atom                  positions (alat units)
         1           Si  tau(   1) = (  -0.1541291   0.0000110   1.5548730  )
         2           Si  tau(   2) = (   0.4780148   0.5000109   1.8025294  )
         3           Si  tau(   3) = (  -0.0140282   0.5000093   1.6496809  )
         4           Si  tau(   4) = (   0.4890182   0.0000105   1.9160451  )
         5           Si  tau(   5) = (  -0.0027982   0.0000107   2.0485685  )
         6           Si  tau(   6) = (   0.5014189   0.5000098   2.3304784  )
         7           Si  tau(   7) = (   0.0007841   0.5000105   2.1872390  )
         8           Si  tau(   8) = (   0.5108927   0.0000122   2.4685785  )
         9           Si  tau(   9) = (   0.0058361   0.0000106   2.6326858  )
        10           Si  tau(  10) = (   0.5027203   0.5000106   2.8993369  )
        11           Si  tau(  11) = (   0.0029026   0.5000117   2.7495578  )
        12           Si  tau(  12) = (   0.5020445   0.0000111   3.0322747  )
        13           Si  tau(  13) = (   0.0014077   0.0000104   3.1670425  )
        14           Si  tau(  14) = (   0.5023525   0.5000107   3.4504446  )
        15           Si  tau(  15) = (   0.0031251   0.5000109   3.3112538  )
        16           Si  tau(  16) = (   0.4997937   0.0000105   3.5836574  )
        17           Si  tau(  17) = (   0.0000515   0.0000105   3.7332699  )
        18           Si  tau(  18) = (   0.4967596   0.5000110   4.0054346  )
        19           Si  tau(  19) = (  -0.0024760   0.5000107   3.8664600  )
        20           Si  tau(  20) = (   0.4985232   0.0000105   4.1498301  )
        21           Si  tau(  21) = (  -0.0021053   0.0000111   4.2846147  )
        22           Si  tau(  22) = (   0.4970862   0.5000118   4.5672938  )
        23           Si  tau(  23) = (  -0.0027404   0.5000109   4.4173801  )
        24           Si  tau(  24) = (   0.4942231   0.0000107   4.6840436  )
        25           Si  tau(  25) = (  -0.0108443   0.0000122   4.8483277  )
        26           Si  tau(  26) = (   0.4993401   0.5000106   5.1294828  )
        27           Si  tau(  27) = (  -0.0013119   0.5000101   4.9862100  )
        28           Si  tau(  28) = (   0.5028781   0.0000109   5.2683541  )
        29           Si  tau(  29) = (   0.0110514   0.0000107   5.4007290  )
        30           Si  tau(  30) = (   0.5141673   0.5000095   5.6669211  )
        31           Si  tau(  31) = (   0.0221177   0.5000110   5.5140830  )
        32           Si  tau(  32) = (   0.6542687   0.0000111   5.7619866  )

     number of k points=   113  gaussian smearing, width (Ry)=  0.0100

     Number of k-points >= 100: set verbosity='high' to print them.

     Initial potential from superposition of free atoms

     starting charge  127.98210, renormalised to  128.00000

     negative rho (up, down):  1.682E-04 0.000E+00
     Starting wfcs are  128 randomized atomic wfcs
     Checking if some PAW data can be deallocated...

     Self-consistent Calculation

     iteration #  1     ecut=    45.00 Ry     beta= 0.50
     CG style diagonalization
     ethr =  1.00E-02,  avg # of iterations =  3.3

     Threshold (ethr) on eigenvalues was too large:
     Diagonalizing with lowered threshold

     CG style diagonalization
     ethr =  7.28E-04,  avg # of iterations =  2.6

     total energy              =   -1494.42714436 Ry
     Harris-Foulkes estimate   =   -1494.47304901 Ry
     estimated scf accuracy    <       1.06034811 Ry

[...]

     iteration #  4     ecut=    45.00 Ry     beta= 0.50
     CG style diagonalization
     c_bands:  4 eigenvalues not converged
     c_bands:  2 eigenvalues not converged
     c_bands:  4 eigenvalues not converged
     c_bands:  5 eigenvalues not converged
     c_bands:  4 eigenvalues not converged
     c_bands:  2 eigenvalues not converged
     c_bands:  3 eigenvalues not converged
     c_bands:  1 eigenvalues not converged
     ethr =  4.70E-05,  avg # of iterations =  4.9

[...]

     negative rho (up, down):  3.099E-05 0.000E+00

[...]

     iteration # 11     ecut=    45.00 Ry     beta= 0.50
     CG style diagonalization
     c_bands:  1 eigenvalues not converged
     c_bands:  1 eigenvalues not converged
     ethr =  2.38E-07,  avg # of iterations =  3.3

[...]

     total energy              =   -1494.41185208 Ry
     Harris-Foulkes estimate   =   -1494.41185208 Ry
     estimated scf accuracy    <       0.00000002 Ry

     iteration # 17     ecut=    45.00 Ry     beta= 0.50
     CG style diagonalization
     ethr =  1.92E-11,  avg # of iterations =  3.0

[...]

     End of self-consistent calculation

     Number of k-points >= 100: set verbosity='high' to print the bands.

     the Fermi energy is     3.9347 ev

!    total energy              =   -1494.41185208 Ry
     Harris-Foulkes estimate   =   -1494.41185208 Ry
     estimated scf accuracy    <          7.2E-09 Ry

     total all-electron energy =    -18561.479531 Ry

     The total energy is the sum of the following terms:

     one-electron contribution =   -4472.89018811 Ry
     hartree contribution      =    2288.07832282 Ry
     xc contribution           =    -157.86952547 Ry
     ewald contribution        =    2026.15406550 Ry
     one-center paw contrib.   =   -1177.87608251 Ry
     smearing contrib. (-TS)   =      -0.00844430 Ry

     convergence has been achieved in  17 iterations

     negative rho (up, down):  6.206E-05 0.000E+00

     Forces acting on atoms (cartesian axes, Ry/au):

     atom    1 type  1   force =    -0.00000441   -0.00000143   -0.00001114
     atom    2 type  1   force =     0.00000394   -0.00000047   -0.00001276
     atom    3 type  1   force =     0.00000546    0.00000162   -0.00001385
     atom    4 type  1   force =    -0.00000499    0.00000027   -0.00000296
     atom    5 type  1   force =    -0.00000711   -0.00000025    0.00000017
     atom    6 type  1   force =    -0.00000390    0.00000258   -0.00000131
     atom    7 type  1   force =    -0.00000581    0.00000033    0.00000399
     atom    8 type  1   force =    -0.00000872   -0.00000289    0.00001141
     atom    9 type  1   force =    -0.00000649    0.00000125    0.00000256
     atom   10 type  1   force =    -0.00000467    0.00000056    0.00000621
     atom   11 type  1   force =    -0.00000672   -0.00000138    0.00000357
     atom   12 type  1   force =     0.00000086   -0.00000049   -0.00001177
     atom   13 type  1   force =     0.00000023    0.00000069    0.00000161
     atom   14 type  1   force =     0.00000744   -0.00000018    0.00000421
     atom   15 type  1   force =     0.00000606   -0.00000058    0.00001011
     atom   16 type  1   force =     0.00000943    0.00000034    0.00000880
     atom   17 type  1   force =     0.00000904    0.00000026    0.00000222
     atom   18 type  1   force =     0.00000660   -0.00000058    0.00000203
     atom   19 type  1   force =     0.00000684   -0.00000015    0.00000329
     atom   20 type  1   force =     0.00000496    0.00000068    0.00000055
     atom   21 type  1   force =     0.00000272   -0.00000018    0.00001814
     atom   22 type  1   force =     0.00000214   -0.00000136    0.00000153
     atom   23 type  1   force =     0.00000072    0.00000028   -0.00000084
     atom   24 type  1   force =    -0.00000296    0.00000122    0.00000191
     atom   25 type  1   force =    -0.00000309   -0.00000265   -0.00000218
     atom   26 type  1   force =    -0.00000327    0.00000045   -0.00000641
     atom   27 type  1   force =    -0.00000437    0.00000234   -0.00000328
     atom   28 type  1   force =    -0.00000475   -0.00000037   -0.00001633
     atom   29 type  1   force =     0.00000963    0.00000018   -0.00001330
     atom   30 type  1   force =    -0.00000557    0.00000155    0.00000808
     atom   31 type  1   force =    -0.00000148   -0.00000033    0.00000764
     atom   32 type  1   force =     0.00000225   -0.00000134   -0.00000187

     Total force =     0.000055     Total SCF correction =     0.000151
     SCF correction compared to forces is large: reduce conv_thr to get better values

     Computing stress (Cartesian axis) and pressure

     negative rho (up, down):  6.206E-05 0.000E+00
          total   stress  (Ry/bohr**3)                   (kbar)     P=   -0.72
  -0.00001316   0.00000000   0.00000023         -1.94      0.00      0.03
   0.00000000  -0.00000006  -0.00000000          0.00     -0.01     -0.00
   0.00000023  -0.00000000  -0.00000155          0.03     -0.00     -0.23

     Writing output data file Si.I4_1amd_4ML.save/

     General routines

     Parallel routines

   This run was terminated on:  12: 9:46   8Sep2021

   JOB DONE.
Note: The following floating-point exceptions are signalling: IEEE_UNDERFLOW_FLAG IEEE_DENORMAL
Note: The following floating-point exceptions are signalling:Note: The following floating-point exceptions are signalling: IEEE_UNDERFLOW_FLAG IEEE_DENORMAL
 IEEE_UNDERFLOW_FLAG IEEE_DENORMAL
Note: The following floating-point exceptions are signalling: IEEE_UNDERFLOW_FLAG IEEE_DENORMAL