     Program PWSCF v.6.3MaX starts on 13Jul2020 at 20:58:32

     Current dimensions of program PWSCF are:
     Max number of different atomic species (ntypx) = 10
     Max number of k-points (npk) =  40000
     Max angular momentum in pseudopotentials (lmaxx) =  3

     Title:
     Diamond (Fd-3m) Si in GGA-PBE

     bravais-lattice index     =            2
     lattice parameter (alat)  =      10.3353  a.u.
     unit-cell volume          =     276.0014 (a.u.)^3
     number of atoms/cell      =            2
     number of atomic types    =            1
     number of electrons       =         8.00
     number of Kohn-Sham states=            8
     kinetic-energy cutoff     =      50.0000  Ry
     charge density cutoff     =     200.0000  Ry
     convergence threshold     =      1.0E-10
     mixing beta               =       0.7000
     number of iterations used =            8  plain     mixing
     Exchange-correlation      = PBE ( 1  4  3  4 0 0)

     celldm(1)=  10.335316  celldm(2)=   0.000000  celldm(3)=   0.000000
     celldm(4)=   0.000000  celldm(5)=   0.000000  celldm(6)=   0.000000

     crystal axes: (cart. coord. in units of alat)
               a(1) = (  -0.500000   0.000000   0.500000 )
               a(2) = (   0.000000   0.500000   0.500000 )
               a(3) = (  -0.500000   0.500000   0.000000 )

     reciprocal axes: (cart. coord. in units 2 pi/alat)
               b(1) = ( -1.000000 -1.000000  1.000000 )
               b(2) = (  1.000000  1.000000  1.000000 )
               b(3) = ( -1.000000  1.000000 -1.000000 )

     PseudoPot. # 1 for Si read from file:
     /Users/williamparker/Library/Pseudopotentials/SSSP_efficiency_pseudos/Si.pbe-n-rrkjus_psl.1.0.0.UPF
     MD5 check sum: 0b0bb1205258b0d07b9f9672cf965d36
     Pseudo is Ultrasoft + core correction, Zval =  4.0
     Generated using "atomic" code by A. Dal Corso v.5.1
     Using radial grid of 1141 points,  6 beta functions with:
                l(1) =   0
                l(2) =   0
                l(3) =   1
                l(4) =   1
                l(5) =   2
                l(6) =   2
     Q(r) pseudized with 0 coefficients

     atomic species   valence    mass     pseudopotential
        Si             4.00    28.08600     Si( 1.00)

     48 Sym. Ops., with inversion, found (24 have fractional translation)

                                    s                        frac. trans.

      isym =  1     identity

 cryst.   s( 1) = (     1          0          0      )
                  (     0          1          0      )
                  (     0          0          1      )

 cart.    s( 1) = (  1.0000000  0.0000000  0.0000000 )
                  (  0.0000000  1.0000000  0.0000000 )
                  (  0.0000000  0.0000000  1.0000000 )

      isym =  2     180 deg rotation - cart. axis [0,0,1]

[...]

 cryst.   s( 4) = (     0         -1          1      )
                  (     0         -1          0      )
                  (     1         -1          0      )

 cart.    s( 4) = (  1.0000000  0.0000000  0.0000000 )
                  (  0.0000000 -1.0000000  0.0000000 )
                  (  0.0000000  0.0000000 -1.0000000 )

[...]

 cryst.   s( 5) = (     0         -1          0      )    f =( -0.2500000 )
                  (    -1          0          0      )       ( -0.2500000 )
                  (     0          0         -1      )       ( -0.2500000 )

 cart.    s( 5) = (  0.0000000  1.0000000  0.0000000 )    f =(  0.2500000 )
                  (  1.0000000  0.0000000  0.0000000 )       ( -0.2500000 )
                  (  0.0000000  0.0000000 -1.0000000 )       ( -0.2500000 )

[...]

 cryst.   s( 9) = (    -1          0          0      )    f =( -0.2500000 )
                  (     0          0         -1      )       ( -0.2500000 )
                  (     0         -1          0      )       ( -0.2500000 )

 cart.    s( 9) = (  0.0000000  0.0000000  1.0000000 )    f =(  0.2500000 )
                  (  0.0000000 -1.0000000  0.0000000 )       ( -0.2500000 )
                  (  1.0000000  0.0000000  0.0000000 )       ( -0.2500000 )

[...]

 cryst.   s(10) = (     1          0          0      )    f =( -0.2500000 )
                  (     1         -1          0      )       ( -0.2500000 )
                  (     1          0         -1      )       ( -0.2500000 )

 cart.    s(10) = (  0.0000000  0.0000000 -1.0000000 )    f =(  0.2500000 )
                  (  0.0000000 -1.0000000  0.0000000 )       ( -0.2500000 )
                  ( -1.0000000  0.0000000  0.0000000 )       ( -0.2500000 )

[...]

 cryst.   s(17) = (    -1          0          1      )
                  (    -1          1          0      )
                  (    -1          0          0      )

 cart.    s(17) = (  0.0000000  1.0000000  0.0000000 )
                  (  0.0000000  0.0000000  1.0000000 )
                  (  1.0000000  0.0000000  0.0000000 )

[...]

      isym = 24     120 deg rotation - cart. axis [-1,-1,1]

[...]

      isym = 25     inversion

[...]

      isym = 26     inv. 180 deg rotation - cart. axis [0,0,1]

[...]

 cryst.   s(40) = (    -1          1          0      )
                  (    -1          0          1      )
                  (    -1          0          0      )

 cart.    s(40) = ( -1.0000000  0.0000000  0.0000000 )
                  (  0.0000000  0.0000000  1.0000000 )
                  (  0.0000000 -1.0000000  0.0000000 )

[...]

      isym = 48     inv. 120 deg rotation - cart. axis [-1,-1,1]

 cryst.   s(48) = (    -1          1          0      )    f =( -0.2500000 )
                  (     0          1         -1      )       ( -0.2500000 )
                  (     0          1          0      )       ( -0.2500000 )

 cart.    s(48) = (  0.0000000  0.0000000  1.0000000 )    f =(  0.2500000 )
                  ( -1.0000000  0.0000000  0.0000000 )       ( -0.2500000 )
                  (  0.0000000  1.0000000  0.0000000 )       ( -0.2500000 )

     point group O_h (m-3m)
     there are 10 classes
     the character table:

       E     8C3   3C2   6C4   6C2'  i     8S6   3s_h  6S4   6s_d
A_1g   1.00  1.00  1.00  1.00  1.00  1.00  1.00  1.00  1.00  1.00
A_2g   1.00  1.00  1.00 -1.00 -1.00  1.00  1.00  1.00 -1.00 -1.00
E_g    2.00 -1.00  2.00  0.00  0.00  2.00 -1.00  2.00  0.00  0.00
T_1g   3.00  0.00 -1.00  1.00 -1.00  3.00  0.00 -1.00  1.00 -1.00
T_2g   3.00  0.00 -1.00 -1.00  1.00  3.00  0.00 -1.00 -1.00  1.00
A_1u   1.00  1.00  1.00  1.00  1.00 -1.00 -1.00 -1.00 -1.00 -1.00
A_2u   1.00  1.00  1.00 -1.00 -1.00 -1.00 -1.00 -1.00  1.00  1.00
E_u    2.00 -1.00  2.00  0.00  0.00 -2.00  1.00 -2.00  0.00  0.00
T_1u   3.00  0.00 -1.00  1.00 -1.00 -3.00  0.00  1.00 -1.00  1.00
T_2u   3.00  0.00 -1.00 -1.00  1.00 -3.00  0.00  1.00  1.00 -1.00

     the symmetry operations in each class and the name of the first element:

     E        1
          identity
     8C3     17   19   20   18   24   21   22   23
          120 deg rotation - cart. axis [-1,-1,-1]
     3C2      2    4    3
          180 deg rotation - cart. axis [0,0,1]
     6C4      7    8   15   16   12   11
           90 deg rotation - cart. axis [0,0,-1]
     6C2'     5    6   14   13   10    9
          180 deg rotation - cart. axis [1,1,0]
     i       25
          inversion
     8S6     41   43   44   42   48   45   46   47
          inv. 120 deg rotation - cart. axis [-1,-1,-1]
     3s_h    26   28   27
          inv. 180 deg rotation - cart. axis [0,0,1]
     6S4     31   32   39   40   36   35
          inv.  90 deg rotation - cart. axis [0,0,-1]
     6s_d    29   30   38   37   34   33
          inv. 180 deg rotation - cart. axis [1,1,0]

   Cartesian axes

     site n.     atom                  positions (alat units)
         1           Si  tau(   1) = (   0.0000000   0.0000000   0.0000000  )
         2           Si  tau(   2) = (  -0.2500000   0.2500000   0.2500000  )

   Crystallographic axes

     site n.     atom                  positions (cryst. coord.)
         1           Si  tau(   1) = (  0.0000000  0.0000000  0.0000000  )
         2           Si  tau(   2) = (  0.2500000  0.2500000  0.2500000  )

     number of k points=   120  gaussian smearing, width (Ry)=  0.0010
                       cart. coord. in units 2pi/alat
        k(    1) = (   0.0000000   0.0000000   0.0000000), wk =   0.0005926
        k(    2) = (  -0.0666667   0.0666667  -0.0666667), wk =   0.0047407
        k(    3) = (  -0.1333333   0.1333333  -0.1333333), wk =   0.0047407
        k(    4) = (  -0.2000000   0.2000000  -0.2000000), wk =   0.0047407
        k(    5) = (  -0.2666667   0.2666667  -0.2666667), wk =   0.0047407
        k(    6) = (  -0.3333333   0.3333333  -0.3333333), wk =   0.0047407
        k(    7) = (  -0.4000000   0.4000000  -0.4000000), wk =   0.0047407
        k(    8) = (  -0.4666667   0.4666667  -0.4666667), wk =   0.0047407
        k(    9) = (   0.0000000   0.1333333   0.0000000), wk =   0.0035556
        k(   10) = (  -0.0666667   0.2000000  -0.0666667), wk =   0.0142222
        k(   11) = (  -0.1333333   0.2666667  -0.1333333), wk =   0.0142222
        k(   12) = (  -0.2000000   0.3333333  -0.2000000), wk =   0.0142222
        k(   13) = (  -0.2666667   0.4000000  -0.2666667), wk =   0.0142222
        k(   14) = (  -0.3333333   0.4666667  -0.3333333), wk =   0.0142222
        k(   15) = (  -0.4000000   0.5333333  -0.4000000), wk =   0.0142222
        k(   16) = (   0.5333333  -0.4000000   0.5333333), wk =   0.0142222
        k(   17) = (   0.4666667  -0.3333333   0.4666667), wk =   0.0142222
        k(   18) = (   0.4000000  -0.2666667   0.4000000), wk =   0.0142222
        k(   19) = (   0.3333333  -0.2000000   0.3333333), wk =   0.0142222
        k(   20) = (   0.2666667  -0.1333333   0.2666667), wk =   0.0142222
        k(   21) = (   0.2000000  -0.0666667   0.2000000), wk =   0.0142222
        k(   22) = (   0.1333333   0.0000000   0.1333333), wk =   0.0071111
        k(   23) = (   0.0000000   0.2666667   0.0000000), wk =   0.0035556
        k(   24) = (  -0.0666667   0.3333333  -0.0666667), wk =   0.0142222
        k(   25) = (  -0.1333333   0.4000000  -0.1333333), wk =   0.0142222
        k(   26) = (  -0.2000000   0.4666667  -0.2000000), wk =   0.0142222
        k(   27) = (  -0.2666667   0.5333333  -0.2666667), wk =   0.0142222
        k(   28) = (  -0.3333333   0.6000000  -0.3333333), wk =   0.0142222
        k(   29) = (   0.6000000  -0.3333333   0.6000000), wk =   0.0142222
        k(   30) = (   0.5333333  -0.2666667   0.5333333), wk =   0.0142222
        k(   31) = (   0.4666667  -0.2000000   0.4666667), wk =   0.0142222
        k(   32) = (   0.4000000  -0.1333333   0.4000000), wk =   0.0142222
        k(   33) = (   0.3333333  -0.0666667   0.3333333), wk =   0.0142222
        k(   34) = (   0.2666667   0.0000000   0.2666667), wk =   0.0071111
        k(   35) = (   0.0000000   0.4000000   0.0000000), wk =   0.0035556
        k(   36) = (  -0.0666667   0.4666667  -0.0666667), wk =   0.0142222
        k(   37) = (  -0.1333333   0.5333333  -0.1333333), wk =   0.0142222
        k(   38) = (  -0.2000000   0.6000000  -0.2000000), wk =   0.0142222
        k(   39) = (  -0.2666667   0.6666667  -0.2666667), wk =   0.0142222
        k(   40) = (   0.6666667  -0.2666667   0.6666667), wk =   0.0142222
        k(   41) = (   0.6000000  -0.2000000   0.6000000), wk =   0.0142222
        k(   42) = (   0.5333333  -0.1333333   0.5333333), wk =   0.0142222
        k(   43) = (   0.4666667  -0.0666667   0.4666667), wk =   0.0142222
        k(   44) = (   0.4000000   0.0000000   0.4000000), wk =   0.0071111
        k(   45) = (   0.0000000   0.5333333   0.0000000), wk =   0.0035556
        k(   46) = (  -0.0666667   0.6000000  -0.0666667), wk =   0.0142222
        k(   47) = (  -0.1333333   0.6666667  -0.1333333), wk =   0.0142222
        k(   48) = (  -0.2000000   0.7333333  -0.2000000), wk =   0.0142222
        k(   49) = (   0.7333333  -0.2000000   0.7333333), wk =   0.0142222
        k(   50) = (   0.6666667  -0.1333333   0.6666667), wk =   0.0142222
        k(   51) = (   0.6000000  -0.0666667   0.6000000), wk =   0.0142222
        k(   52) = (   0.5333333  -0.0000000   0.5333333), wk =   0.0071111
        k(   53) = (   0.0000000   0.6666667   0.0000000), wk =   0.0035556
        k(   54) = (  -0.0666667   0.7333333  -0.0666667), wk =   0.0142222
        k(   55) = (  -0.1333333   0.8000000  -0.1333333), wk =   0.0142222
        k(   56) = (   0.8000000  -0.1333333   0.8000000), wk =   0.0142222
        k(   57) = (   0.7333333  -0.0666667   0.7333333), wk =   0.0142222
        k(   58) = (   0.6666667  -0.0000000   0.6666667), wk =   0.0071111
        k(   59) = (   0.0000000   0.8000000   0.0000000), wk =   0.0035556
        k(   60) = (  -0.0666667   0.8666667  -0.0666667), wk =   0.0142222
[...]
        k(  106) = (   0.6666667  -0.2666667   0.9333333), wk =   0.0284444
        k(  107) = (   0.6000000  -0.2000000   0.8666667), wk =   0.0284444
        k(  108) = (   0.5333333  -0.1333333   0.8000000), wk =   0.0284444
        k(  109) = (   0.4666667  -0.0666667   0.7333333), wk =   0.0284444
        k(  110) = (   0.4000000   0.0000000   0.6666667), wk =   0.0142222
        k(  111) = (   0.7333333  -0.2000000   1.0000000), wk =   0.0142222
        k(  112) = (   0.6666667  -0.1333333   0.9333333), wk =   0.0284444
        k(  113) = (   0.6000000  -0.0666667   0.8666667), wk =   0.0284444
        k(  114) = (   0.5333333   0.0000000   0.8000000), wk =   0.0142222
        k(  115) = (   0.7333333  -0.0666667   1.0000000), wk =   0.0142222
        k(  116) = (   0.6666667   0.0000000   0.9333333), wk =   0.0142222
        k(  117) = (   0.6000000  -0.2000000   1.0000000), wk =   0.0142222
        k(  118) = (   0.5333333  -0.1333333   0.9333333), wk =   0.0284444
        k(  119) = (   0.6000000  -0.0666667   1.0000000), wk =   0.0142222
        k(  120) = (   0.5333333  -0.0000000   0.9333333), wk =   0.0142222

                       cryst. coord.
        k(    1) = (   0.0000000   0.0000000   0.0000000), wk =   0.0005926
        k(    2) = (   0.0000000   0.0000000   0.0666667), wk =   0.0047407
        k(    3) = (   0.0000000   0.0000000   0.1333333), wk =   0.0047407
        k(    4) = (   0.0000000   0.0000000   0.2000000), wk =   0.0047407
        k(    5) = (   0.0000000   0.0000000   0.2666667), wk =   0.0047407
        k(    6) = (   0.0000000   0.0000000   0.3333333), wk =   0.0047407
        k(    7) = (   0.0000000   0.0000000   0.4000000), wk =   0.0047407
        k(    8) = (   0.0000000   0.0000000   0.4666667), wk =   0.0047407
        k(    9) = (   0.0000000   0.0666667   0.0666667), wk =   0.0035556
        k(   10) = (   0.0000000   0.0666667   0.1333333), wk =   0.0142222
        k(   11) = (   0.0000000   0.0666667   0.2000000), wk =   0.0142222
        k(   12) = (   0.0000000   0.0666667   0.2666667), wk =   0.0142222
        k(   13) = (   0.0000000   0.0666667   0.3333333), wk =   0.0142222
        k(   14) = (   0.0000000   0.0666667   0.4000000), wk =   0.0142222
        k(   15) = (   0.0000000   0.0666667   0.4666667), wk =   0.0142222
        k(   16) = (   0.0000000   0.0666667  -0.4666667), wk =   0.0142222
        k(   17) = (   0.0000000   0.0666667  -0.4000000), wk =   0.0142222
        k(   18) = (   0.0000000   0.0666667  -0.3333333), wk =   0.0142222
        k(   19) = (   0.0000000   0.0666667  -0.2666667), wk =   0.0142222
        k(   20) = (   0.0000000   0.0666667  -0.2000000), wk =   0.0142222
        k(   21) = (   0.0000000   0.0666667  -0.1333333), wk =   0.0142222
        k(   22) = (   0.0000000   0.0666667  -0.0666667), wk =   0.0071111
        k(   23) = (   0.0000000   0.1333333   0.1333333), wk =   0.0035556
        k(   24) = (   0.0000000   0.1333333   0.2000000), wk =   0.0142222
        k(   25) = (   0.0000000   0.1333333   0.2666667), wk =   0.0142222
        k(   26) = (   0.0000000   0.1333333   0.3333333), wk =   0.0142222
        k(   27) = (   0.0000000   0.1333333   0.4000000), wk =   0.0142222
        k(   28) = (   0.0000000   0.1333333   0.4666667), wk =   0.0142222
        k(   29) = (   0.0000000   0.1333333  -0.4666667), wk =   0.0142222
        k(   30) = (   0.0000000   0.1333333  -0.4000000), wk =   0.0142222
        k(   31) = (   0.0000000   0.1333333  -0.3333333), wk =   0.0142222
        k(   32) = (   0.0000000   0.1333333  -0.2666667), wk =   0.0142222
        k(   33) = (   0.0000000   0.1333333  -0.2000000), wk =   0.0142222
        k(   34) = (   0.0000000   0.1333333  -0.1333333), wk =   0.0071111
        k(   35) = (   0.0000000   0.2000000   0.2000000), wk =   0.0035556
        k(   36) = (   0.0000000   0.2000000   0.2666667), wk =   0.0142222
        k(   37) = (   0.0000000   0.2000000   0.3333333), wk =   0.0142222
        k(   38) = (   0.0000000   0.2000000   0.4000000), wk =   0.0142222
        k(   39) = (   0.0000000   0.2000000   0.4666667), wk =   0.0142222
        k(   40) = (   0.0000000   0.2000000  -0.4666667), wk =   0.0142222
        k(   41) = (   0.0000000   0.2000000  -0.4000000), wk =   0.0142222
        k(   42) = (   0.0000000   0.2000000  -0.3333333), wk =   0.0142222
        k(   43) = (   0.0000000   0.2000000  -0.2666667), wk =   0.0142222
        k(   44) = (   0.0000000   0.2000000  -0.2000000), wk =   0.0071111
        k(   45) = (   0.0000000   0.2666667   0.2666667), wk =   0.0035556
        k(   46) = (   0.0000000   0.2666667   0.3333333), wk =   0.0142222
        k(   47) = (   0.0000000   0.2666667   0.4000000), wk =   0.0142222
        k(   48) = (   0.0000000   0.2666667   0.4666667), wk =   0.0142222
        k(   49) = (   0.0000000   0.2666667  -0.4666667), wk =   0.0142222
        k(   50) = (   0.0000000   0.2666667  -0.4000000), wk =   0.0142222
        k(   51) = (   0.0000000   0.2666667  -0.3333333), wk =   0.0142222
        k(   52) = (   0.0000000   0.2666667  -0.2666667), wk =   0.0071111
        k(   53) = (   0.0000000   0.3333333   0.3333333), wk =   0.0035556
        k(   54) = (   0.0000000   0.3333333   0.4000000), wk =   0.0142222
        k(   55) = (   0.0000000   0.3333333   0.4666667), wk =   0.0142222
        k(   56) = (   0.0000000   0.3333333  -0.4666667), wk =   0.0142222
        k(   57) = (   0.0000000   0.3333333  -0.4000000), wk =   0.0142222
        k(   58) = (   0.0000000   0.3333333  -0.3333333), wk =   0.0071111
        k(   59) = (   0.0000000   0.4000000   0.4000000), wk =   0.0035556
        k(   60) = (   0.0000000   0.4000000   0.4666667), wk =   0.0142222
[...]
        k(  106) = (   0.1333333   0.3333333  -0.4666667), wk =   0.0284444
        k(  107) = (   0.1333333   0.3333333  -0.4000000), wk =   0.0284444
        k(  108) = (   0.1333333   0.3333333  -0.3333333), wk =   0.0284444
        k(  109) = (   0.1333333   0.3333333  -0.2666667), wk =   0.0284444
        k(  110) = (   0.1333333   0.3333333  -0.2000000), wk =   0.0142222
        k(  111) = (   0.1333333   0.4000000  -0.4666667), wk =   0.0142222
        k(  112) = (   0.1333333   0.4000000  -0.4000000), wk =   0.0284444
        k(  113) = (   0.1333333   0.4000000  -0.3333333), wk =   0.0284444
        k(  114) = (   0.1333333   0.4000000  -0.2666667), wk =   0.0142222
        k(  115) = (   0.1333333   0.4666667  -0.4000000), wk =   0.0142222
        k(  116) = (   0.1333333   0.4666667  -0.3333333), wk =   0.0142222
        k(  117) = (   0.2000000   0.4000000  -0.4000000), wk =   0.0142222
        k(  118) = (   0.2000000   0.4000000  -0.3333333), wk =   0.0284444
        k(  119) = (   0.2000000   0.4666667  -0.3333333), wk =   0.0142222
        k(  120) = (   0.2000000   0.4666667  -0.2666667), wk =   0.0142222

     Check: negative/imaginary core charge=   -0.000001    0.000000

     Initial potential from superposition of free atoms

     starting charge    7.99888, renormalised to    8.00000
     Starting wfcs are    8 randomized atomic wfcs

     Self-consistent Calculation

     iteration #  1     ecut=    50.00 Ry     beta= 0.70
     Davidson diagonalization with overlap
     ethr =  1.00E-02,  avg # of iterations =  3.9

     Threshold (ethr) on eigenvalues was too large:
     Diagonalizing with lowered threshold

     Davidson diagonalization with overlap
     ethr =  6.86E-04,  avg # of iterations =  1.2

     total energy              =     -22.83792771 Ry
     Harris-Foulkes estimate   =     -22.85074020 Ry
     estimated scf accuracy    <       0.05430400 Ry

[...]

     total energy              =     -22.84019886 Ry
     Harris-Foulkes estimate   =     -22.84019886 Ry
     estimated scf accuracy    <       0.00000002 Ry

     iteration #  6     ecut=    50.00 Ry     beta= 0.70
     Davidson diagonalization with overlap
     ethr =  2.70E-10,  avg # of iterations =  2.1

     End of self-consistent calculation

          k = 0.0000 0.0000 0.0000 (  1639 PWs)   bands (ev):

    -5.8346   5.9824   5.9824   5.9824   8.5366   8.5366   8.5366   9.1007

     occupation numbers
     1.0000   1.0000   1.0000   1.0000   0.0000   0.0000   0.0000   0.0000

          k =-0.0667 0.0667-0.0667 (  1654 PWs)   bands (ev):

[...]

          k =-0.2667 0.6667 0.0000 (  1651 PWs)   bands (ev):

[...]

          k = 0.5333-0.0000 0.9333 (  1640 PWs)   bands (ev):

    -1.8963  -1.3442   2.0149   2.5051   9.6099  10.5004  11.1400  11.1880

     occupation numbers
     1.0000   1.0000   1.0000   1.0000   0.0000   0.0000   0.0000   0.0000

     the Fermi energy is     6.2751 ev

!    total energy              =     -22.84019887 Ry
     Harris-Foulkes estimate   =     -22.84019887 Ry
     estimated scf accuracy    <          5.3E-11 Ry

     The total energy is the sum of the following terms:

     one-electron contribution =       5.00222917 Ry
     hartree contribution      =       1.11915122 Ry
     xc contribution           =     -12.28308218 Ry
     ewald contribution        =     -16.67849708 Ry
     smearing contrib. (-TS)   =      -0.00000000 Ry

     convergence has been achieved in   6 iterations

     Writing output data file Si.Fd-3m.save/

     General routines

   This run was terminated on:  20:58:57  13Jul2020

   JOB DONE.