     Program PWSCF v.6.2 (svn rev. 14038) starts on 31Mar2018 at  9:28:41

     K-points division:     npool     =       3
     Reading input from Si.1_ML.scf.in

     Current dimensions of program PWSCF are:
     Max number of different atomic species (ntypx) = 10
     Max number of k-points (npk) =  40000
     Max angular momentum in pseudopotentials (lmaxx) =  3

     Subspace diagonalization in iterative solution of the eigenvalue problem:
     a serial algorithm will be used

     bravais-lattice index     =            6
     lattice parameter (alat)  =      10.3355  a.u.
     unit-cell volume          =    2870.5396 (a.u.)^3
     number of atoms/cell      =            8
     number of atomic types    =            1
     number of electrons       =        32.00
     number of Kohn-Sham states=           20
     kinetic-energy cutoff     =      50.0000  Ry
     charge density cutoff     =     500.0000  Ry
     convergence threshold     =      1.0E-10
     mixing beta               =       0.5000
     number of iterations used =            8  local-TF  mixing
     Exchange-correlation      = PBE ( 1  4  3  4 0 0)
     nstep                     =          200

     celldm(1)=  10.335466  celldm(2)=   0.000000  celldm(3)=   2.600000
     celldm(4)=   0.000000  celldm(5)=   0.000000  celldm(6)=   0.000000

     crystal axes: (cart. coord. in units of alat)
               a(1) = (   1.000000   0.000000   0.000000 )
               a(2) = (   0.000000   1.000000   0.000000 )
               a(3) = (   0.000000   0.000000   2.600000 )

     reciprocal axes: (cart. coord. in units 2 pi/alat)
               b(1) = (  1.000000  0.000000  0.000000 )
               b(2) = (  0.000000  1.000000  0.000000 )
               b(3) = (  0.000000  0.000000  0.384615 )

     PseudoPot. # 1 for Si read from file:
     /Users/williamparker/src/pslibrary.1.0.0/pbe/PSEUDOPOTENTIALS/Si.pbe-n-rrkjus_psl.1.0.0.UPF
     MD5 check sum: 43033f30c245c7e4bcc26f9d0f6849e4
     Pseudo is Ultrasoft + core correction, Zval =  4.0
     Generated using "atomic" code by A. Dal Corso v.6.1
     Using radial grid of 1141 points,  6 beta functions with:
                l(1) =   0
                l(2) =   0
                l(3) =   1
                l(4) =   1
                l(5) =   2
                l(6) =   2
     Q(r) pseudized with 0 coefficients

     atomic species   valence    mass     pseudopotential
        Si             4.00    28.08600     Si( 1.00)

      2 Sym. Ops. (no inversion) found

   Cartesian axes

     site n.     atom                  positions (alat units)
         1           Si  tau(   1) = (   0.0746337   0.0746337   0.2792390  )
         2           Si  tau(   2) = (  -0.0896328   0.4269232   0.4788728  )
         3           Si  tau(   3) = (   0.4269232  -0.0896328   0.4788728  )
         4           Si  tau(   4) = (   0.5715609   0.5715609  -0.0912995  )
         5           Si  tau(   5) = (   0.3826075   0.3826075   0.2396837  )
         6           Si  tau(   6) = (   0.2667864   0.5618866   0.6709050  )
         7           Si  tau(   7) = (   0.5618866   0.2667864   0.6709050  )
         8           Si  tau(   8) = (   0.7686764   0.7686764   0.2362632  )

     number of k points=    21
                       cart. coord. in units 2pi/alat
        k(    1) = (   0.0000000   0.0000000   0.0000000), wk =   0.0312500
        k(    2) = (   0.0000000   0.1250000   0.0000000), wk =   0.1250000
        k(    3) = (   0.0000000   0.2500000   0.0000000), wk =   0.1250000
        k(    4) = (   0.0000000   0.3750000   0.0000000), wk =   0.1250000
        k(    5) = (   0.0000000  -0.5000000   0.0000000), wk =   0.0625000
        k(    6) = (   0.1250000   0.1250000   0.0000000), wk =   0.0625000
        k(    7) = (   0.1250000   0.2500000   0.0000000), wk =   0.1250000
        k(    8) = (   0.1250000   0.3750000   0.0000000), wk =   0.1250000
        k(    9) = (   0.1250000  -0.5000000   0.0000000), wk =   0.1250000
        k(   10) = (   0.2500000   0.2500000   0.0000000), wk =   0.0625000
        k(   11) = (   0.2500000   0.3750000   0.0000000), wk =   0.1250000
        k(   12) = (   0.2500000  -0.5000000   0.0000000), wk =   0.1250000
        k(   13) = (   0.3750000   0.3750000   0.0000000), wk =   0.0625000
        k(   14) = (   0.3750000  -0.5000000   0.0000000), wk =   0.1250000
        k(   15) = (  -0.5000000  -0.5000000   0.0000000), wk =   0.0312500
        k(   16) = (  -0.1250000   0.1250000   0.0000000), wk =   0.0625000
        k(   17) = (  -0.1250000   0.2500000   0.0000000), wk =   0.1250000
        k(   18) = (  -0.1250000   0.3750000   0.0000000), wk =   0.1250000
        k(   19) = (  -0.2500000   0.2500000   0.0000000), wk =   0.0625000
        k(   20) = (  -0.2500000   0.3750000   0.0000000), wk =   0.1250000
        k(   21) = (  -0.3750000   0.3750000   0.0000000), wk =   0.0625000

     Initial potential from superposition of free atoms

     starting charge   31.99553, renormalised to   32.00000

     negative rho (up, down):  1.710E-06 0.000E+00
     Starting wfc are   32 randomized atomic wfcs

     Self-consistent Calculation

     iteration #  1     ecut=    50.00 Ry     beta= 0.50
     CG style diagonalization
     ethr =  1.00E-02,  avg # of iterations =  3.0

     total energy              =     -90.99722361 Ry
     Harris-Foulkes estimate   =     -91.04401217 Ry
     estimated scf accuracy    <       0.33885602 Ry

[...]

     negative rho (up, down):  5.486E-06 0.000E+00

[...]

     total energy              =     -90.98088824 Ry
     Harris-Foulkes estimate   =     -90.98088824 Ry
     estimated scf accuracy    <          2.7E-10 Ry

     iteration # 18     ecut=    50.00 Ry     beta= 0.50
     CG style diagonalization
     ethr =  8.38E-13,  avg # of iterations =  3.2

[...]

     End of self-consistent calculation

          k = 0.0000 0.0000 0.0000 ( 17177 PWs)   bands (ev):

   -12.6301  -9.5982  -8.4821  -8.3199  -8.0745  -7.5100  -5.6373  -5.0584
    -3.9472  -3.2194  -3.0001  -2.9700  -2.4791  -2.2463  -1.8914  -1.4761
     0.0188   0.2307   0.8846   1.3789

[...]

          k = 0.3750-0.5000 0.0000 ( 17128 PWs)   bands (ev):

[...]

          k =-0.5000-0.5000 0.0000 ( 17160 PWs)   bands (ev):

[...]

          k =-0.3750 0.3750 0.0000 ( 17102 PWs)   bands (ev):

   -11.6013 -10.3504  -9.8544  -9.4624  -7.9804  -6.5772  -5.3083  -4.7527
    -3.6162  -3.1429  -2.8300  -2.4832  -2.1939  -1.9264  -1.0459  -0.6419
    -0.5252   0.6346   1.0520   1.7941

     highest occupied, lowest unoccupied level (ev):    -0.4866   -0.5252

!    total energy              =     -90.98088824 Ry
     Harris-Foulkes estimate   =     -90.98088824 Ry
     estimated scf accuracy    <          9.1E-11 Ry

     The total energy is the sum of the following terms:

     one-electron contribution =    -217.41392726 Ry
     hartree contribution      =     115.52025566 Ry
     xc contribution           =     -48.75213582 Ry
     ewald contribution        =      59.66491918 Ry

     convergence has been achieved in  18 iterations

     negative rho (up, down):  7.747E-08 0.000E+00

     Forces acting on atoms (cartesian axes, Ry/au):

     atom    1 type  1   force =     0.00032888    0.00032888    0.00055804
     atom    2 type  1   force =     0.00097460   -0.00054881    0.00020456
     atom    3 type  1   force =    -0.00054881    0.00097460    0.00020456
     atom    4 type  1   force =     0.00042343    0.00042343   -0.00030602
     atom    5 type  1   force =    -0.00012439   -0.00012439    0.00040445
     atom    6 type  1   force =    -0.00062992   -0.00031416   -0.00010240
     atom    7 type  1   force =    -0.00031416   -0.00062992   -0.00010240
     atom    8 type  1   force =    -0.00010962   -0.00010962   -0.00086078

     Total force =     0.001189     Total SCF correction =     0.000011

     BFGS Geometry Optimization

     bfgs converged in   1 scf cycles and   0 bfgs steps
     (criteria: energy <  1.0E-04 Ry, force <  1.0E-03 Ry/Bohr)

     End of BFGS Geometry Optimization

     Final energy   =     -90.9808882393 Ry
Begin final coordinates

ATOMIC_POSITIONS (angstrom)
Si       0.408193841   0.408193841   1.527239673    0   0   1
Si      -0.490228046   2.334967898   2.619095630    0   0   1
Si       2.334967898  -0.490228046   2.619095630    0   0   1
Si       3.126033954   3.126033954  -0.499343702    0   0   1
Si       2.092592545   2.092592545   1.310900204    0   0   1
Si       1.459132827   3.073122740   3.669375891    0   0   1
Si       3.073122740   1.459132827   3.669375891    0   0   1
Si       4.204116242   4.204116241   1.292192782    0   0   1
End final coordinates

     Writing output data file Si.1_ML.save

     General routines

     Parallel routines

   This run was terminated on:   9:47:51  31Mar2018

   JOB DONE.
Note: The following floating-point exceptions are signalling: IEEE_UNDERFLOW_FLAG
Note: The following floating-point exceptions are signalling: IEEE_UNDERFLOW_FLAG
Note: The following floating-point exceptions are signalling: IEEE_UNDERFLOW_FLAG