     Program PWSCF v.6.4.1 starts on 25Sep2021 at 10:40:20

     K-points division:     npool     =       3
     R & G space division:  proc/nbgrp/npool/nimage =       4
     Reading input from Si.Fd-3m_1ML.relax_0.000.in

     Current dimensions of program PWSCF are:
     Max number of different atomic species (ntypx) = 10
     Max number of k-points (npk) =  40000
     Max angular momentum in pseudopotentials (lmaxx) =  3
               file Si.pbe-nl-kjpaw_psl.1.0.0.UPF: wavefunction(s)  3S 3P renormalized

     Subspace diagonalization in iterative solution of the eigenvalue problem:
     a serial algorithm will be used

     Message from routine setup:
     DEPRECATED: symmetry with ibrav=0, use correct ibrav instead
     Message from routine setup:
     Dynamics, you should have no symmetries

     Title:
     Relaxation of atomic positions for single monolayer slab of Si using PBE

     bravais-lattice index     =            0
     lattice parameter (alat)  =      10.3320  a.u.
     unit-cell volume          =    2867.6230 (a.u.)^3
     number of atoms/cell      =            8
     number of atomic types    =            1
     number of electrons       =        32.00
     number of Kohn-Sham states=           24
     kinetic-energy cutoff     =      45.0000  Ry
     charge density cutoff     =     175.0000  Ry
     convergence threshold     =      1.0E-08
     mixing beta               =       0.5000
     number of iterations used =            8  local-TF  mixing
     Exchange-correlation      = SLA PW PBX PBC ( 1  4  3  4 0 0)
     nstep                     =          150

     celldm(1)=  10.331964  celldm(2)=   0.000000  celldm(3)=   0.000000
     celldm(4)=   0.000000  celldm(5)=   0.000000  celldm(6)=   0.000000

     crystal axes: (cart. coord. in units of alat)
               a(1) = (   1.000000   0.000000   0.000000 )
               a(2) = (   0.000000   1.000000   0.000000 )
               a(3) = (   0.000000   0.000000   2.600000 )

     reciprocal axes: (cart. coord. in units 2 pi/alat)
               b(1) = (  1.000000  0.000000  0.000000 )
               b(2) = (  0.000000  1.000000  0.000000 )
               b(3) = (  0.000000  0.000000  0.384615 )

     PseudoPot. # 1 for Si read from file:
     /share/pseudo/Si.pbe-nl-kjpaw_psl.1.0.0.UPF
     MD5 check sum: 3686bff6734aab787fb18a3c8374d51f
     Pseudo is Projector augmented-wave + core cor, Zval =  4.0
     Generated using "atomic" code by A. Dal Corso v.6.3
     Shape of augmentation charge: PSQ
     Using radial grid of 1141 points,  4 beta functions with:
                l(1) =   0
                l(2) =   0
                l(3) =   1
                l(4) =   1
     Q(r) pseudized with 0 coefficients

     atomic species   valence    mass     pseudopotential
        Si             4.00    28.08600     Si( 1.00)

      2 Sym. Ops. (no inversion) found

   Cartesian axes

     site n.     atom                  positions (alat units)
         1           Si  tau(   1) = (   0.0000150   0.0000150   0.8016128  )
         2           Si  tau(   2) = (   0.0000143   0.5000173   1.3038383  )
         3           Si  tau(   3) = (   0.5000173   0.0000143   1.3038383  )
         4           Si  tau(   4) = (   0.5000170   0.5000170   0.8016106  )
         5           Si  tau(   5) = (   0.2500262   0.2500262   1.0462567  )
         6           Si  tau(   6) = (   0.2500027   0.7500298   1.5484958  )
         7           Si  tau(   7) = (   0.7500298   0.2500027   1.5484958  )
         8           Si  tau(   8) = (   0.7500067   0.7500067   1.0462565  )

     number of k points=    21  gaussian smearing, width (Ry)=  0.0100
                       cart. coord. in units 2pi/alat
        k(    1) = (   0.0000000   0.0000000   0.0000000), wk =   0.0312500
        k(    2) = (   0.0000000   0.1250000   0.0000000), wk =   0.1250000
        k(    3) = (   0.0000000   0.2500000   0.0000000), wk =   0.1250000
        k(    4) = (   0.0000000   0.3750000   0.0000000), wk =   0.1250000
        k(    5) = (   0.0000000  -0.5000000   0.0000000), wk =   0.0625000
        k(    6) = (   0.1250000   0.1250000   0.0000000), wk =   0.0625000
        k(    7) = (   0.1250000   0.2500000   0.0000000), wk =   0.1250000
        k(    8) = (   0.1250000   0.3750000   0.0000000), wk =   0.1250000
        k(    9) = (   0.1250000  -0.5000000   0.0000000), wk =   0.1250000
        k(   10) = (   0.2500000   0.2500000   0.0000000), wk =   0.0625000
        k(   11) = (   0.2500000   0.3750000   0.0000000), wk =   0.1250000
        k(   12) = (   0.2500000  -0.5000000   0.0000000), wk =   0.1250000
        k(   13) = (   0.3750000   0.3750000   0.0000000), wk =   0.0625000
        k(   14) = (   0.3750000  -0.5000000   0.0000000), wk =   0.1250000
        k(   15) = (  -0.5000000  -0.5000000   0.0000000), wk =   0.0312500
        k(   16) = (  -0.1250000   0.1250000   0.0000000), wk =   0.0625000
        k(   17) = (  -0.1250000   0.2500000   0.0000000), wk =   0.1250000
        k(   18) = (  -0.1250000   0.3750000   0.0000000), wk =   0.1250000
        k(   19) = (  -0.2500000   0.2500000   0.0000000), wk =   0.0625000
        k(   20) = (  -0.2500000   0.3750000   0.0000000), wk =   0.1250000
        k(   21) = (  -0.3750000   0.3750000   0.0000000), wk =   0.0625000

     Initial potential from superposition of free atoms

     starting charge   31.99553, renormalised to   32.00000

     negative rho (up, down):  3.908E-06 0.000E+00
     Starting wfcs are   32 randomized atomic wfcs
     Checking if some PAW data can be deallocated...

     Self-consistent Calculation

     iteration #  1     ecut=    45.00 Ry     beta= 0.50
     CG style diagonalization
     ethr =  1.00E-02,  avg # of iterations =  3.2

     Threshold (ethr) on eigenvalues was too large:
     Diagonalizing with lowered threshold

     CG style diagonalization
     ethr =  8.46E-04,  avg # of iterations =  2.2

     total energy              =    -373.29951081 Ry
     Harris-Foulkes estimate   =    -373.34150420 Ry
     estimated scf accuracy    <       0.27603572 Ry

[...]

     iteration #  4     ecut=    45.00 Ry     beta= 0.50
     CG style diagonalization
     c_bands:  1 eigenvalues not converged
     c_bands:  1 eigenvalues not converged
     ethr =  2.37E-05,  avg # of iterations =  4.9

[...]

     iteration #  7     ecut=    45.00 Ry     beta= 0.50
     CG style diagonalization
     c_bands:  1 eigenvalues not converged
     ethr =  2.72E-06,  avg # of iterations =  4.0

[...]

     negative rho (up, down):  2.432E-08 0.000E+00

[...]

     total energy              =    -373.27785839 Ry
     Harris-Foulkes estimate   =    -373.27785840 Ry
     estimated scf accuracy    <       0.00000004 Ry

     iteration # 14     ecut=    45.00 Ry     beta= 0.50
     CG style diagonalization
     ethr =  1.25E-10,  avg # of iterations =  3.6

[...]

     End of self-consistent calculation

          k = 0.0000 0.0000 0.0000 ( 14593 PWs)   bands (ev):

   -11.7762  -9.6349  -8.3802  -8.3801  -7.5862  -7.5860  -6.3344  -3.8577
    -3.8577  -2.9405  -2.7013  -2.5694  -2.1928  -2.1926  -1.5687  -0.8258
    -0.8257  -0.5515   0.3402   0.8069   0.9628   1.7805   1.9622   2.3332

[...]

          k = 0.3750-0.5000 0.0000 ( 14652 PWs)   bands (ev):

[...]

          k =-0.5000-0.5000 0.0000 ( 14632 PWs)   bands (ev):

[...]

          k =-0.3750 0.3750 0.0000 ( 14656 PWs)   bands (ev):

   -10.7639 -10.2283  -9.6927  -8.4546  -7.7158  -6.8420  -5.9863  -5.7854
    -3.1554  -2.7098  -2.6617  -2.4123  -2.2633  -1.9043  -1.6583  -1.0499
    -0.3099   0.1147   0.6276   1.0268   1.6309   1.9785   2.3222   2.6771

     the Fermi energy is    -0.9829 ev

!    total energy              =    -373.27785840 Ry
     Harris-Foulkes estimate   =    -373.27785840 Ry
     estimated scf accuracy    <          5.1E-09 Ry

     convergence has been achieved in  14 iterations

     negative rho (up, down):  9.965E-07 0.000E+00

     Forces acting on atoms (cartesian axes, Ry/au):

     atom    1 type  1   force =     0.00000366    0.00000366    0.00012937
     atom    2 type  1   force =     0.00000402   -0.00000222    0.00062388
     atom    3 type  1   force =    -0.00000222    0.00000402    0.00062388
     atom    4 type  1   force =    -0.00000169   -0.00000169    0.00010248
     atom    5 type  1   force =     0.00000906    0.00000906   -0.00062742
     atom    6 type  1   force =    -0.00000380    0.00000192   -0.00011223
     atom    7 type  1   force =     0.00000192   -0.00000380   -0.00011223
     atom    8 type  1   force =    -0.00001097   -0.00001097   -0.00062772

     Total force =     0.001272     Total SCF correction =     0.000100

     Computing stress (Cartesian axis) and pressure

     negative rho (up, down):  9.965E-07 0.000E+00
          total   stress  (Ry/bohr**3)                   (kbar)     P=   -9.90
  -0.00010107   0.00003013  -0.00000000        -14.87      4.43     -0.00
   0.00003013  -0.00010107  -0.00000000          4.43    -14.87     -0.00
  -0.00000000  -0.00000000   0.00000029         -0.00     -0.00      0.04

     Damped Dynamics Calculation

     Damped Dynamics: convergence achieved in   0 steps

     End of damped dynamics calculation

     Final energy =    -373.2778584019 Ry

Begin final coordinates
     new unit-cell volume =   2867.62301 a.u.^3 (   424.93788 Ang^3 )
     density =      0.87802 g/cm^3

CELL_PARAMETERS (alat= 10.33196444)
   1.000000000   0.000000000   0.000000000
   0.000000000   1.000000000   0.000000000
   0.000000000   0.000000000   2.600000000

ATOMIC_POSITIONS (angstrom)
Si       0.000081947   0.000081947   4.382769865
Si       0.000078368   2.733814666   7.128657605
Si       2.733814666   0.000078368   7.128657605
Si       2.733813194   2.733813194   4.382758139
Si       1.367003543   1.367003543   5.720345945
Si       1.366874920   4.100743227   8.466308306
Si       4.100743227   1.366874920   8.466308306
Si       4.100616883   4.100616883   5.720344706
End final coordinates

     Writing output data file Si.Fd-3m_1ML.save/

     General routines

     Parallel routines

   This run was terminated on:  10:56:37  25Sep2021

   JOB DONE.